     Program PWSCF v.6.4.1 starts on 12Mar2024 at  1: 5: 4

     R & G space division:  proc/nbgrp/npool/nimage =      32
     Reading input from li_v16o40.rlx.in

     Current dimensions of program PWSCF are:
     Max number of different atomic species (ntypx) = 10
     Max number of k-points (npk) =  40000
     Max angular momentum in pseudopotentials (lmaxx) =  3

     IMPORTANT: XC functional enforced from input :
     Exchange-correlation      = VDW-DF ( 1  4  4  0 1 0)
     Any further DFT definition will be discarded
     Please, verify this is what you really want

               file V.pbesol-spnl-kjpaw_psl.1.0.0.UPF: wavefunction(s)  3P 3D renormalized
               file O.pbesol-n-kjpaw_psl.1.0.0.UPF: wavefunction(s)  2S 2P renormalized

     Subspace diagonalization in iterative solution of the eigenvalue problem:
     one sub-group per band group will be used

     bravais-lattice index     =            0
     lattice parameter (alat)  =      13.5330  a.u.
     unit-cell volume          =    4659.2488 (a.u.)^3
     number of atoms/cell      =           57
     number of atomic types    =            3
     number of electrons       =       451.00
     number of Kohn-Sham states=          271
     kinetic-energy cutoff     =      40.0000  Ry
     charge density cutoff     =     400.0000  Ry
     convergence threshold     =      1.0E-06
     mixing beta               =       0.4000
     number of iterations used =            8  plain     mixing
     Exchange-correlation      = VDW-DF ( 1  4  4  0 1 0)
     nstep                     =          500

     celldm(1)=  13.532985  celldm(2)=   0.000000  celldm(3)=   0.000000
     celldm(4)=   0.000000  celldm(5)=   0.000000  celldm(6)=   0.000000

     crystal axes: (cart. coord. in units of alat)
               a(1) = (   1.000000  -0.000000   0.000000 )
               a(2) = (  -0.000000   1.153628   0.000000 )
               a(3) = (   0.000000   0.000000   1.629556 )

     reciprocal axes: (cart. coord. in units 2 pi/alat)
               b(1) = (  1.000000  0.000000 -0.000000 )
               b(2) = (  0.000000  0.866831 -0.000000 )
               b(3) = ( -0.000000 -0.000000  0.613664 )

     PseudoPot. # 1 for V  read from file:
     /home/mpicuntureo/pseudos/V.pbesol-spnl-kjpaw_psl.1.0.0.UPF
     MD5 check sum: d709b3179d4cab0f72010db8785d50db
     Pseudo is Projector augmented-wave + core cor, Zval = 13.0
     Generated using "atomic" code by A. Dal Corso v.6.3
     Shape of augmentation charge: PSQ
     Using radial grid of 1181 points,  6 beta functions with:
                l(1) =   0
                l(2) =   0
                l(3) =   1
                l(4) =   1
                l(5) =   2
                l(6) =   2
     Q(r) pseudized with 0 coefficients

     PseudoPot. # 2 for O  read from file:
     /home/mpicuntureo/pseudos/O.pbesol-n-kjpaw_psl.1.0.0.UPF
     MD5 check sum: cb766521a97cf798d01896eaf7ac9a0a
     Pseudo is Projector augmented-wave + core cor, Zval =  6.0
     Generated using "atomic" code by A. Dal Corso v.6.3
     Shape of augmentation charge: PSQ
     Using radial grid of 1095 points,  4 beta functions with:
                l(1) =   0
                l(2) =   0
                l(3) =   1
                l(4) =   1
     Q(r) pseudized with 0 coefficients

     PseudoPot. # 3 for Li read from file:
     /home/mpicuntureo/pseudos/Li.pbesol-sl-kjpaw_psl.1.0.0.UPF
     MD5 check sum: eef8ea5bb9be16d4f57185b44daa939b
     Pseudo is Projector augmented-wave, Zval =  3.0
     Generated using "atomic" code by A. Dal Corso v.6.3
     Shape of augmentation charge: PSQ
     Using radial grid of 1017 points,  4 beta functions with:
                l(1) =   0
                l(2) =   0
                l(3) =   1
                l(4) =   1
     Q(r) pseudized with 0 coefficients

     vdW kernel table read from file vdW_kernel_table
     MD5 check sum: 8c4337f4b28e1601c069d7ef7b6561bc

     atomic species   valence    mass     pseudopotential
        V             13.00    50.94150     V ( 1.00)
        O              6.00    15.99940     O ( 1.00)
        Li             3.00     6.94100     Li( 1.00)

     No symmetry found

   Cartesian axes

     site n.     atom                  positions (alat units)
         1           V   tau(   1) = (   0.1548513   0.2210409   0.2423034  )
         2           V   tau(   2) = (   0.4048513   0.3472013   0.5724700  )
         3           V   tau(   3) = (   0.4048513   0.3472013   1.0570860  )
         4           V   tau(   4) = (   0.1548513   0.2210409   1.3872527  )
         5           O   tau(   5) = (   0.1548552   0.2800035   0.0000000  )
         6           O   tau(   6) = (   0.1548525  -0.0052330   0.2376924  )
         7           O   tau(   7) = (   0.4048544   0.2831581   0.2928758  )
         8           O   tau(   8) = (   0.1548545   0.2850854   0.5219019  )
         9           O   tau(   9) = (   0.4048529   0.5734746   0.5770840  )
        10           O   tau(  10) = (   0.4048556   0.2882351   0.8147780  )
        11           O   tau(  11) = (   0.4048529   0.5734746   1.0524720  )
        12           O   tau(  12) = (   0.1548545   0.2850854   1.1076541  )
        13           O   tau(  13) = (   0.4048544   0.2831581   1.3366802  )
        14           O   tau(  14) = (   0.1548525  -0.0052330   1.3918637  )
        15           V   tau(  15) = (   0.1548512   0.7978550   0.2423034  )
        16           V   tau(  16) = (   0.4048512   0.9240153   0.5724700  )
        17           V   tau(  17) = (   0.4048512   0.9240153   1.0570860  )
        18           V   tau(  18) = (   0.1548512   0.7978550   1.3872527  )
        19           O   tau(  19) = (   0.1548550   0.8568175   0.0000000  )
        20           O   tau(  20) = (   0.1548523   0.5715810   0.2376924  )
        21           O   tau(  21) = (   0.4048543   0.8599721   0.2928758  )
        22           O   tau(  22) = (   0.1548544   0.8618995   0.5219019  )
        23           O   tau(  23) = (   0.4048528   1.1502886   0.5770840  )
        24           O   tau(  24) = (   0.4048555   0.8650491   0.8147780  )
        25           O   tau(  25) = (   0.4048528   1.1502886   1.0524720  )
        26           O   tau(  26) = (   0.1548544   0.8618995   1.1076541  )
        27           O   tau(  27) = (   0.4048543   0.8599721   1.3366802  )
        28           O   tau(  28) = (   0.1548523   0.5715810   1.3918637  )
        29           V   tau(  29) = (   0.6548513   0.2210408   0.2423034  )
        30           V   tau(  30) = (   0.9048513   0.3472012   0.5724700  )
        31           V   tau(  31) = (   0.9048513   0.3472012   1.0570860  )
        32           V   tau(  32) = (   0.6548513   0.2210408   1.3872527  )
        33           O   tau(  33) = (   0.6548552   0.2800034   0.0000000  )
        34           O   tau(  34) = (   0.6548525  -0.0052331   0.2376924  )
        35           O   tau(  35) = (   0.9048544   0.2831580   0.2928758  )
        36           O   tau(  36) = (   0.6548545   0.2850853   0.5219019  )
        37           O   tau(  37) = (   0.9048529   0.5734745   0.5770840  )
        38           O   tau(  38) = (   0.9048556   0.2882350   0.8147780  )
        39           O   tau(  39) = (   0.9048529   0.5734745   1.0524720  )
        40           O   tau(  40) = (   0.6548545   0.2850853   1.1076541  )
        41           O   tau(  41) = (   0.9048544   0.2831580   1.3366802  )
        42           O   tau(  42) = (   0.6548525  -0.0052331   1.3918637  )
        43           V   tau(  43) = (   0.6548512   0.7978549   0.2423034  )
        44           V   tau(  44) = (   0.9048512   0.9240152   0.5724700  )
        45           V   tau(  45) = (   0.9048512   0.9240152   1.0570860  )
        46           V   tau(  46) = (   0.6548512   0.7978549   1.3872527  )
        47           O   tau(  47) = (   0.6548550   0.8568174   0.0000000  )
        48           O   tau(  48) = (   0.6548523   0.5715809   0.2376924  )
        49           O   tau(  49) = (   0.9048543   0.8599720   0.2928758  )
        50           O   tau(  50) = (   0.6548544   0.8618994   0.5219019  )
        51           O   tau(  51) = (   0.9048528   1.1502885   0.5770840  )
        52           O   tau(  52) = (   0.9048555   0.8650490   0.8147780  )
        53           O   tau(  53) = (   0.9048528   1.1502885   1.0524720  )
        54           O   tau(  54) = (   0.6548544   0.8618994   1.1076541  )
        55           O   tau(  55) = (   0.9048543   0.8599720   1.3366802  )
        56           O   tau(  56) = (   0.6548523   0.5715809   1.3918637  )
        57           Li  tau(  57) = (   0.6590459   0.6031904   0.8126482  )

     number of k points=     8  gaussian smearing, width (Ry)=  0.1000
                       cart. coord. in units 2pi/alat
        k(    1) = (   0.0000000   0.0000000   0.0000000), wk =   0.2500000
        k(    2) = (   0.0000000   0.0000000  -0.3068320), wk =   0.2500000
        k(    3) = (  -0.0000001  -0.4334153   0.0000000), wk =   0.2500000
        k(    4) = (  -0.0000001  -0.4334153  -0.3068320), wk =   0.2500000
        k(    5) = (  -0.5000000  -0.0000001   0.0000000), wk =   0.2500000
        k(    6) = (  -0.5000000  -0.0000001  -0.3068320), wk =   0.2500000
        k(    7) = (  -0.5000001  -0.4334154   0.0000000), wk =   0.2500000
        k(    8) = (  -0.5000001  -0.4334154  -0.3068320), wk =   0.2500000

     Check: negative core charge=   -0.000007

     Initial potential from superposition of free atoms

     starting charge  450.98163, renormalised to  451.00000

     %%%%%%%%%%%%%%%%%%%%%%%%%%%%%%%%%%%%%%%%%%%%%%%%%%%%%%%%%%%%%%%%%%%%%%%%
     %                                                                      %
     % You are using vdW-DF, which was implemented by the Thonhauser group. %
     % Please cite the following two papers that made this development      %
     % possible and the two reviews that describe the various versions:     %
     %                                                                      %
     %   T. Thonhauser et al., PRL 115, 136402 (2015).                      %
     %   T. Thonhauser et al., PRB 76, 125112 (2007).                       %
     %   K. Berland et al., Rep. Prog. Phys. 78, 066501 (2015).             %
     %   D.C. Langreth et al., J. Phys.: Condens. Matter 21, 084203 (2009). %
     %                                                                      %
     %                                                                      %
     % If you are calculating the stress with vdW-DF, please also cite:     %
     %                                                                      %
     %   R. Sabatini et al., J. Phys.: Condens. Matter 24, 424209 (2012).   %
     %                                                                      %
     %%%%%%%%%%%%%%%%%%%%%%%%%%%%%%%%%%%%%%%%%%%%%%%%%%%%%%%%%%%%%%%%%%%%%%%%

     Starting wfcs are  325 randomized atomic wfcs
     Checking if some PAW data can be deallocated...

     Self-consistent Calculation

     iteration #  1     ecut=    40.00 Ry     beta= 0.40
     Davidson diagonalization with overlap
[...]
O        4.689751389   2.043587882   7.927638890
O        6.479656797   2.029083301   9.569893835
O        4.689629142  -0.038138580   9.967026529
V        4.689617537   5.713472241   1.729947675
V        6.486997895   6.626988311   4.091184851
V        6.486791751   6.626794890   7.578630689
V        4.689617643   5.713466048   9.939734052
O        4.689648292   6.136222383   0.000022541
O        4.689631219   4.092290043   1.703094976
O        6.479325621   6.159383586   2.099198965
O        4.689725601   6.166901363   3.743039067
O        6.479921002   8.237104339   4.132657398
O        6.472737448   6.186133413   5.834830530
O        6.479927769   8.237117316   7.537147291
O        4.689723577   6.167097490   7.926929197
O        6.479335607   6.159389616   9.570629985
O        4.689631236   4.092313535   9.966744176
Li       4.719941513   4.331209991   5.819641787

     Writing output data file li_v16o40.save/
     NEW-OLD atomic charge density approx. for the potential

[...]

     iteration #  1     ecut=    40.00 Ry     beta= 0.40
     Davidson diagonalization with overlap
     c_bands:  1 eigenvalues not converged
     ethr =  1.00E-06,  avg # of iterations = 14.1

[...]

     energy   old            =   -5161.2178793365 Ry
     energy   new            =   -5161.2257641235 Ry

     CASE: energy  _new < energy  _old

[...]

     iteration #  6     ecut=    40.00 Ry     beta= 0.40
     Davidson diagonalization with overlap
     c_bands:  1 eigenvalues not converged
     ethr =  7.92E-08,  avg # of iterations =  8.1

[...]

     Threshold (ethr) on eigenvalues was too large:
     Diagonalizing with lowered threshold

     Davidson diagonalization with overlap
     ethr =  9.73E-08,  avg # of iterations =  5.8

[...]

     number of scf cycles    =  28
     number of bfgs steps    =  27

     energy   old            =   -5161.2626959082 Ry
     energy   new            =   -5161.2628362898 Ry

     CASE: energy  _new < energy  _old

     new trust radius        =       0.0095017880 bohr
     new conv_thr            =       0.0000000100 Ry

ATOMIC_POSITIONS (angstrom)
V        1.108474058   1.617790177   1.731015040
V        2.925498349   2.435783763   4.123856406
V        2.924873592   2.436883936   7.547190141
V        1.108216569   1.616317769   9.938837306
O        1.107444239   2.033697311   0.000127687
O        1.109488366  -0.005189556   1.686815988
O        2.911469695   2.039832473   2.113076971
O        1.108322625   2.215905088   3.718030862
O        3.152882213   4.048979095   4.302870554
O        2.852554138   1.921884166   5.835475612
O        3.146654247   4.050103591   7.368997421
O        1.108088974   2.210756158   7.952467902
O        2.911099002   2.038981850   9.557581684
O        1.109007731  -0.006614336   9.983609764
V        1.111161041   5.672731874   1.733965926
V        2.864997861   6.655627507   4.081754647
V        2.865999960   6.652661222   7.586731719
V        1.111021992   5.672115081   9.935076380
O        1.114617037   6.096573411  -0.000173291
O        1.110967262   4.054421006   1.705746771
O        2.881923493   6.145421349   2.124223862
O        1.109691083   6.033578894   3.823731077
O        2.726830352   8.265816574   4.067762763
O        3.074538020   6.251197583   5.833781037
O        2.729319585   8.263204273   7.601805236
O        1.109533839   6.033710779   7.846183208
O        2.881864627   6.144488007   9.545788420
O        1.110936436   4.053921171   9.963682733
V        4.689426035   1.567822876   1.721425514
V        6.452154428   2.433468667   4.125427825
V        6.452274895   2.434663609   7.545556008
V        4.689254250   1.567824965   9.948869583
O        4.688391640   2.053718992   0.000298340
O        4.690507555  -0.051374318   1.638400104
O        6.466856907   2.041269415   2.113243139
O        4.688754842   1.868073619   3.765958731
O        6.225003680   4.046270745   4.310905855
O        6.524987364   1.913138887   5.835471341
O        6.230452789   4.047446528   7.360609479
O        4.688565437   1.870904920   7.904657362
O        6.466812966   2.040822276   9.557416980
O        4.690453371  -0.051393328  10.031818894
V        4.691450666   5.714208288   1.748241734
V        6.516607002   6.657820735   4.080011684
V        6.515245883   6.654846659   7.588483205
V        4.691244685   5.713071952   9.921459175
O        4.690130412   6.079921198   0.000011564
O        4.691511912   4.093788998   1.780600231
O        6.500955186   6.144895796   2.121741641
O        4.691483020   6.290837491   3.711934512
O        6.654438180   8.267874638   4.059137821
O        6.307636768   6.261815090   5.833779569
O        6.651487471   8.265243078   7.610544147
O        4.691306707   6.289290823   7.959064629
O        6.500676752   6.143609430   9.548222774
O        4.691072239   4.092676804   9.890030688
Li       4.692917449   4.820499937   5.811554514

     Writing output data file li_v16o40.save/
     NEW-OLD atomic charge density approx. for the potential

     Check: negative core charge=   -0.000007

[...]

     Self-consistent Calculation

[...]

     Threshold (ethr) on eigenvalues was too large:
     Diagonalizing with lowered threshold

     Davidson diagonalization with overlap
     ethr =  1.48E-08,  avg # of iterations =  6.5

[...]

     total energy              =   -5161.26291688 Ry
     Harris-Foulkes estimate   =   -5161.26291688 Ry
     estimated scf accuracy    <       0.00000002 Ry

     iteration # 13     ecut=    40.00 Ry     beta= 0.40
     Davidson diagonalization with overlap
     ethr =  4.40E-12,  avg # of iterations =  5.5

[...]

     End of self-consistent calculation

[...]

          k = 0.0000 0.0000-0.3068 ( 19884 PWs)   bands (ev):

[...]

          k =-0.5000-0.4334-0.3068 ( 19872 PWs)   bands (ev):

   -59.2542 -59.2534 -59.2504 -59.2497 -59.2484 -59.2473 -59.2465 -59.2453
   -59.2301 -59.2284 -59.2136 -59.2121 -59.1876 -59.1858 -59.1811 -59.1792
   -39.2894 -33.2386 -33.2374 -33.2352 -33.2339 -33.2094 -33.2079 -33.2020
   -33.1998 -33.1988 -33.1961 -33.1734 -33.1718 -33.1497 -33.1489 -33.1366
   -33.1354 -33.0983 -33.0975 -33.0934 -33.0885 -33.0852 -33.0765 -33.0749
   -33.0597 -33.0518 -33.0497 -33.0433 -33.0425 -33.0413 -33.0352 -33.0349
   -33.0298 -33.0061 -33.0021 -32.9902 -32.9892 -32.9880 -32.9798 -32.9787
   -32.9741 -32.9740 -32.9722 -32.9668 -32.9522 -32.9509 -32.9501 -32.9457
   -32.9441 -12.4451 -12.4054 -12.3782 -12.3675 -12.3632 -12.3589 -12.3470
   -12.3395 -11.6954 -11.6593 -11.6216 -11.6057 -11.6056 -11.6028 -11.6014
   -11.5978 -11.5786 -11.5702 -11.5665 -11.5429 -11.5385 -11.5319 -11.5309
   -11.5234 -11.2274 -11.2089 -11.1901 -11.1818 -11.1496 -11.1340 -11.1264
   -11.1095 -11.0852 -11.0526 -11.0268 -11.0190 -11.0118 -10.9952 -10.9554
   -10.9495   0.0299   0.0320   0.0433   0.0616   0.1069   0.1301   0.1311
     0.1410   0.6196   0.6368   0.6690   0.6776   0.6923   0.7043   0.7145
     0.7371   0.8746   0.9789   0.9827   1.0247   1.0322   1.0631   1.1048
     1.1181   1.1591   1.2122   1.2321   1.2375   1.2455   1.2996   1.3073
     1.3566   1.3678   1.4037   1.4586   1.4605   1.4749   1.4899   1.5308
     1.5381   1.5923   1.5991   1.6291   1.6348   1.6357   1.6524   1.6805
     1.7268   2.0630   2.0944   2.1190   2.1574   2.2299   2.2580   2.2951
     2.3560   2.6237   2.6488   2.6677   2.6721   2.6882   2.7013   2.7400
     2.7661   2.7729   2.7730   2.7893   2.8642   2.8706   2.8774   2.8893
     2.8960   2.9027   2.9619   2.9625   2.9734   3.0081   3.0134   3.0336
     3.0448   3.3320   3.3562   3.3659   3.3800   3.3857   3.4677   3.4821
     3.4983   3.7026   3.7918   3.7980   3.8363   3.8884   3.8956   3.9069
     3.9347   3.9833   4.1372   4.1509   4.2099   4.2125   4.2233   4.2475
     4.2607   4.2975   4.3073   4.3443   4.3523   4.3581   4.3893   4.4182
     4.4217   4.4255   4.4337   4.4917   4.5139   4.5462   4.5777   4.5910
     4.5939   7.0536   7.0545   7.0736   7.1248   7.1349   7.1620   7.1857
     7.1866   7.6793   7.9092   7.9285   7.9666   8.0110   8.0216   8.0335
     8.0426   8.0803   8.0859   8.1079   8.1778   8.2043   8.2259   8.2367
     8.2409   8.2536   8.2659   8.2852   8.3159   8.3243   8.4007   8.4104
     8.4206   8.4278   8.4508   8.5028   8.5098   8.5288   8.5614   8.5845
     8.5864   8.6018   8.6068   8.6460   8.6686   8.6700   8.6817

     the Fermi energy is     6.0558 ev

!    total energy              =   -5161.26291688 Ry
     Harris-Foulkes estimate   =   -5161.26291689 Ry
     estimated scf accuracy    <          7.1E-09 Ry

     total all-electron energy =    -36469.822658 Ry

     The total energy is the sum of the following terms:

     one-electron contribution =   -2139.02722937 Ry
     hartree contribution      =    1260.08017620 Ry
     xc contribution           =    -639.43574470 Ry
     ewald contribution        =   -2103.98194935 Ry
     one-center paw contrib.   =   -1538.14977841 Ry
     smearing contrib. (-TS)   =      -0.74839125 Ry

     convergence has been achieved in  13 iterations

     negative rho (up, down):  1.383E-03 0.000E+00

     Forces acting on atoms (cartesian axes, Ry/au):

     atom    1 type  1   force =     0.00002677    0.00043080    0.00078352
     atom    2 type  1   force =     0.00056637   -0.00101417    0.00033468
     atom    3 type  1   force =     0.00052517   -0.00122311   -0.00031373
     atom    4 type  1   force =     0.00002837    0.00026847   -0.00079221
     atom    5 type  2   force =     0.00001692    0.00135437   -0.00002082
     atom    6 type  2   force =    -0.00002680    0.00019905    0.00169152
     atom    7 type  2   force =     0.00037857    0.00004439    0.00030297
     atom    8 type  2   force =     0.00003654   -0.00012709    0.00084086
     atom    9 type  2   force =     0.00008662   -0.00043162   -0.00011921
     atom   10 type  2   force =    -0.00013710    0.00025896   -0.00000557
     atom   11 type  2   force =     0.00022368   -0.00024413    0.00001952
     atom   12 type  2   force =     0.00003633    0.00001903   -0.00084658
     atom   13 type  2   force =     0.00037537    0.00008770   -0.00033268
     atom   14 type  2   force =    -0.00002008    0.00031950   -0.00169454
     atom   15 type  1   force =    -0.00006364    0.00070318    0.00037282
     atom   16 type  1   force =     0.00034699   -0.00004393    0.00025403
     atom   17 type  1   force =     0.00028039    0.00040282   -0.00025966
     atom   18 type  1   force =    -0.00006525    0.00090300   -0.00035883
     atom   19 type  2   force =    -0.00023134    0.00038744   -0.00000175
     atom   20 type  2   force =    -0.00005783    0.00093427   -0.00035689
     atom   21 type  2   force =     0.00015688    0.00017433   -0.00038361
     atom   22 type  2   force =     0.00000726    0.00010643   -0.00051761
     atom   23 type  2   force =    -0.00046646   -0.00026835    0.00060190
     atom   24 type  2   force =     0.00065005    0.00082333    0.00002028
     atom   25 type  2   force =    -0.00045535   -0.00063370   -0.00059897
     atom   26 type  2   force =     0.00000831    0.00004216    0.00049554
     atom   27 type  2   force =     0.00015844    0.00014581    0.00036310
     atom   28 type  2   force =    -0.00005449    0.00075706    0.00034870
     atom   29 type  1   force =     0.00004635   -0.00081414   -0.00039367
     atom   30 type  1   force =    -0.00046977   -0.00090378    0.00033139
     atom   31 type  1   force =    -0.00043045   -0.00109884   -0.00031276
     atom   32 type  1   force =     0.00004749   -0.00093963    0.00039997
     atom   33 type  2   force =     0.00003923    0.00118210    0.00000490
     atom   34 type  2   force =    -0.00002712   -0.00104513   -0.00079839
     atom   35 type  2   force =    -0.00030750    0.00002157    0.00029418
     atom   36 type  2   force =     0.00005215    0.00015427   -0.00033422
     atom   37 type  2   force =    -0.00006091   -0.00035097   -0.00026045
     atom   38 type  2   force =     0.00017728    0.00045387   -0.00000530
     atom   39 type  2   force =    -0.00019461   -0.00017489    0.00016133
     atom   40 type  2   force =     0.00005392    0.00015512    0.00034645
     atom   41 type  2   force =    -0.00030131    0.00005905   -0.00032282
     atom   42 type  2   force =    -0.00002177   -0.00092820    0.00075790
     atom   43 type  1   force =    -0.00004157    0.00066188   -0.00000599
     atom   44 type  1   force =    -0.00034885   -0.00007155    0.00036032
     atom   45 type  1   force =    -0.00028337    0.00034742   -0.00036618
     atom   46 type  1   force =    -0.00004010    0.00077605    0.00003302
     atom   47 type  2   force =    -0.00006822   -0.00170556    0.00000485
     atom   48 type  2   force =    -0.00010963    0.00092706   -0.00014840
     atom   49 type  2   force =    -0.00021279    0.00012013   -0.00025002
     atom   50 type  2   force =     0.00001374   -0.00058367    0.00003035
     atom   51 type  2   force =     0.00040170   -0.00015584    0.00082603
     atom   52 type  2   force =    -0.00042279    0.00035737    0.00001662
     atom   53 type  2   force =     0.00039265   -0.00050642   -0.00082699
     atom   54 type  2   force =     0.00001402   -0.00060723   -0.00005768
     atom   55 type  2   force =    -0.00021398    0.00009314    0.00023019
     atom   56 type  2   force =    -0.00010425    0.00084142    0.00012599
     atom   57 type  3   force =     0.00008976   -0.00064059    0.00033264

     Total force =     0.006533     Total SCF correction =     0.000279

     bfgs converged in  29 scf cycles and  28 bfgs steps
     (criteria: energy <  1.0E-04 Ry, force <  1.0E-02 Ry/Bohr)

     End of BFGS Geometry Optimization

     Final energy   =   -5161.2629168827 Ry
Begin final coordinates

ATOMIC_POSITIONS (angstrom)
V        1.108474058   1.617790177   1.731015040
V        2.925498349   2.435783763   4.123856406
V        2.924873592   2.436883936   7.547190141
V        1.108216569   1.616317769   9.938837306
O        1.107444239   2.033697311   0.000127687
O        1.109488366  -0.005189556   1.686815988
O        2.911469695   2.039832473   2.113076971
O        1.108322625   2.215905088   3.718030862
O        3.152882213   4.048979095   4.302870554
O        2.852554138   1.921884166   5.835475612
O        3.146654247   4.050103591   7.368997421
O        1.108088974   2.210756158   7.952467902
O        2.911099002   2.038981850   9.557581684
O        1.109007731  -0.006614336   9.983609764
V        1.111161041   5.672731874   1.733965926
V        2.864997861   6.655627507   4.081754647
V        2.865999960   6.652661222   7.586731719
V        1.111021992   5.672115081   9.935076380
O        1.114617037   6.096573411  -0.000173291
O        1.110967262   4.054421006   1.705746771
O        2.881923493   6.145421349   2.124223862
O        1.109691083   6.033578894   3.823731077
O        2.726830352   8.265816574   4.067762763
O        3.074538020   6.251197583   5.833781037
O        2.729319585   8.263204273   7.601805236
O        1.109533839   6.033710779   7.846183208
O        2.881864627   6.144488007   9.545788420
O        1.110936436   4.053921171   9.963682733
V        4.689426035   1.567822876   1.721425514
V        6.452154428   2.433468667   4.125427825
V        6.452274895   2.434663609   7.545556008
V        4.689254250   1.567824965   9.948869583
O        4.688391640   2.053718992   0.000298340
O        4.690507555  -0.051374318   1.638400104
O        6.466856907   2.041269415   2.113243139
O        4.688754842   1.868073619   3.765958731
O        6.225003680   4.046270745   4.310905855
O        6.524987364   1.913138887   5.835471341
O        6.230452789   4.047446528   7.360609479
O        4.688565437   1.870904920   7.904657362
O        6.466812966   2.040822276   9.557416980
O        4.690453371  -0.051393328  10.031818894
V        4.691450666   5.714208288   1.748241734
V        6.516607002   6.657820735   4.080011684
V        6.515245883   6.654846659   7.588483205
V        4.691244685   5.713071952   9.921459175
O        4.690130412   6.079921198   0.000011564
O        4.691511912   4.093788998   1.780600231
O        6.500955186   6.144895796   2.121741641
O        4.691483020   6.290837491   3.711934512
O        6.654438180   8.267874638   4.059137821
O        6.307636768   6.261815090   5.833779569
O        6.651487471   8.265243078   7.610544147
O        4.691306707   6.289290823   7.959064629
O        6.500676752   6.143609430   9.548222774
O        4.691072239   4.092676804   9.890030688
Li       4.692917449   4.820499937   5.811554514
End final coordinates

     Writing output data file li_v16o40.save/

     General routines

     Parallel routines

   This run was terminated on:  23:45: 2  12Mar2024

   JOB DONE.