     Program PWSCF v.6.4.1 starts on 10Mar2024 at 19:53:55

     R & G space division:  proc/nbgrp/npool/nimage =      16
     Reading input from graph_sc.rlx.in

     Current dimensions of program PWSCF are:
     Max number of different atomic species (ntypx) = 10
     Max number of k-points (npk) =  40000
     Max angular momentum in pseudopotentials (lmaxx) =  3

     IMPORTANT: XC functional enforced from input :
     Exchange-correlation      = VDW-DF ( 1  4  4  0 1 0)
     Any further DFT definition will be discarded
     Please, verify this is what you really want

               file C.pbesol-n-kjpaw_psl.1.0.0.UPF: wavefunction(s)  2S 2P renormalized

     Subspace diagonalization in iterative solution of the eigenvalue problem:
     one sub-group per band group will be used

     Found symmetry operation: I + (  0.0000  0.3333  0.0000)
     This is a supercell, fractional translations are disabled
     Message from routine setup:
     DEPRECATED: symmetry with ibrav=0, use correct ibrav instead

     bravais-lattice index     =            0
     lattice parameter (alat)  =      14.0377  a.u.
     unit-cell volume          =    2220.8687 (a.u.)^3
     number of atoms/cell      =           36
     number of atomic types    =            1
     number of electrons       =       144.00
     number of Kohn-Sham states=           86
     kinetic-energy cutoff     =      40.0000  Ry
     charge density cutoff     =     400.0000  Ry
     convergence threshold     =      1.0E-06
     mixing beta               =       0.4000
     number of iterations used =            8  plain     mixing
     Exchange-correlation      = VDW-DF ( 1  4  4  0 1 0)
     nstep                     =          500

     celldm(1)=  14.037750  celldm(2)=   0.000000  celldm(3)=   0.000000
     celldm(4)=   0.000000  celldm(5)=   0.000000  celldm(6)=   0.000000

     crystal axes: (cart. coord. in units of alat)
               a(1) = (   1.000000   0.000000  -0.000000 )
               a(2) = (  -0.500000   0.866025  -0.000000 )
               a(3) = (   0.000000  -0.000000   0.927043 )

     reciprocal axes: (cart. coord. in units 2 pi/alat)
               b(1) = (  1.000000  0.577350  0.000000 )
               b(2) = (  0.000000  1.154701  0.000000 )
               b(3) = (  0.000000  0.000000  1.078699 )

     PseudoPot. # 1 for C  read from file:
     /home/mpicuntureo/pseudos/C.pbesol-n-kjpaw_psl.1.0.0.UPF
     MD5 check sum: f9b2fe17d1f478429498b05d17159f9e
     Pseudo is Projector augmented-wave + core cor, Zval =  4.0
     Generated using "atomic" code by A. Dal Corso v.6.3
     Shape of augmentation charge: PSQ
     Using radial grid of 1073 points,  4 beta functions with:
                l(1) =   0
                l(2) =   0
                l(3) =   1
                l(4) =   1
     Q(r) pseudized with 0 coefficients

     vdW kernel table read from file vdW_kernel_table
     MD5 check sum: 8c4337f4b28e1601c069d7ef7b6561bc

     atomic species   valence    mass     pseudopotential
        C              4.00    12.01100     C ( 1.00)

     12 Sym. Ops. (no inversion) found

   Cartesian axes

     site n.     atom                  positions (alat units)
         1           C   tau(   1) = (   0.0000000   0.0000000   0.0000000  )
         2           C   tau(   2) = (   0.0000000   0.1924501   0.0000000  )
         3           C   tau(   3) = (   0.0000000   0.0000000   0.4635214  )
         4           C   tau(   4) = (   0.1666667   0.0962250   0.4635214  )
         5           C   tau(   5) = (  -0.1666667   0.2886751   0.0000000  )
         6           C   tau(   6) = (  -0.1666667   0.4811252   0.0000000  )
         7           C   tau(   7) = (  -0.1666667   0.2886751   0.4635214  )
         8           C   tau(   8) = (   0.0000000   0.3849002   0.4635214  )
         9           C   tau(   9) = (  -0.3333333   0.5773503   0.0000000  )
        10           C   tau(  10) = (  -0.3333333   0.7698004   0.0000000  )
        11           C   tau(  11) = (  -0.3333333   0.5773503   0.4635214  )
        12           C   tau(  12) = (  -0.1666667   0.6735753   0.4635214  )
        13           C   tau(  13) = (   0.3333333   0.0000000   0.0000000  )
        14           C   tau(  14) = (   0.3333333   0.1924501   0.0000000  )
        15           C   tau(  15) = (   0.3333333   0.0000000   0.4635214  )
        16           C   tau(  16) = (   0.5000000   0.0962250   0.4635214  )
        17           C   tau(  17) = (   0.1666667   0.2886751   0.0000000  )
        18           C   tau(  18) = (   0.1666667   0.4811252   0.0000000  )
        19           C   tau(  19) = (   0.1666667   0.2886751   0.4635214  )
        20           C   tau(  20) = (   0.3333333   0.3849002   0.4635214  )
        21           C   tau(  21) = (   0.0000000   0.5773503   0.0000000  )
        22           C   tau(  22) = (   0.0000000   0.7698004   0.0000000  )
        23           C   tau(  23) = (   0.0000000   0.5773503   0.4635214  )
        24           C   tau(  24) = (   0.1666667   0.6735753   0.4635214  )
        25           C   tau(  25) = (   0.6666667   0.0000000   0.0000000  )
        26           C   tau(  26) = (   0.6666667   0.1924501   0.0000000  )
        27           C   tau(  27) = (   0.6666667   0.0000000   0.4635214  )
        28           C   tau(  28) = (   0.8333333   0.0962250   0.4635214  )
        29           C   tau(  29) = (   0.5000000   0.2886751   0.0000000  )
        30           C   tau(  30) = (   0.5000000   0.4811252   0.0000000  )
        31           C   tau(  31) = (   0.5000000   0.2886751   0.4635214  )
        32           C   tau(  32) = (   0.6666667   0.3849002   0.4635214  )
        33           C   tau(  33) = (   0.3333333   0.5773503   0.0000000  )
        34           C   tau(  34) = (   0.3333333   0.7698004   0.0000000  )
        35           C   tau(  35) = (   0.3333333   0.5773503   0.4635214  )
        36           C   tau(  36) = (   0.5000000   0.6735753   0.4635214  )

     number of k points=     4  gaussian smearing, width (Ry)=  0.1000
                       cart. coord. in units 2pi/alat
        k(    1) = (   0.0000000   0.0000000   0.0000000), wk =   0.2500000
        k(    2) = (   0.0000000   0.0000000  -0.5393495), wk =   0.2500000
        k(    3) = (   0.0000000  -0.5773503   0.0000000), wk =   0.7500000
        k(    4) = (   0.0000000  -0.5773503  -0.5393495), wk =   0.7500000

     Check: negative core charge=   -0.000006

     Initial potential from superposition of free atoms

     starting charge  143.99850, renormalised to  144.00000

     %%%%%%%%%%%%%%%%%%%%%%%%%%%%%%%%%%%%%%%%%%%%%%%%%%%%%%%%%%%%%%%%%%%%%%%%
     %                                                                      %
     % You are using vdW-DF, which was implemented by the Thonhauser group. %
     % Please cite the following two papers that made this development      %
     % possible and the two reviews that describe the various versions:     %
     %                                                                      %
     %   T. Thonhauser et al., PRL 115, 136402 (2015).                      %
     %   T. Thonhauser et al., PRB 76, 125112 (2007).                       %
     %   K. Berland et al., Rep. Prog. Phys. 78, 066501 (2015).             %
     %   D.C. Langreth et al., J. Phys.: Condens. Matter 21, 084203 (2009). %
     %                                                                      %
     %                                                                      %
     % If you are calculating the stress with vdW-DF, please also cite:     %
     %                                                                      %
     %   R. Sabatini et al., J. Phys.: Condens. Matter 24, 424209 (2012).   %
     %                                                                      %
     %%%%%%%%%%%%%%%%%%%%%%%%%%%%%%%%%%%%%%%%%%%%%%%%%%%%%%%%%%%%%%%%%%%%%%%%

     Starting wfcs are  144 randomized atomic wfcs
     Checking if some PAW data can be deallocated...

     Self-consistent Calculation

     iteration #  1     ecut=    40.00 Ry     beta= 0.40
     Davidson diagonalization with overlap
     ethr =  1.00E-02,  avg # of iterations =  2.2

     total energy              =    -677.57511438 Ry
     Harris-Foulkes estimate   =    -679.09643268 Ry
     estimated scf accuracy    <       3.79630890 Ry

[...]

     total energy              =    -677.53970541 Ry
     Harris-Foulkes estimate   =    -677.53970292 Ry
     estimated scf accuracy    <       0.00000495 Ry

     iteration #  7     ecut=    40.00 Ry     beta= 0.40
     Davidson diagonalization with overlap
     ethr =  3.44E-09,  avg # of iterations =  2.5

     End of self-consistent calculation

          k = 0.0000 0.0000 0.0000 (  9489 PWs)   bands (ev):

   -12.9142 -12.6703 -10.3448 -10.3447 -10.3447 -10.3445 -10.3445 -10.3444
   -10.1404 -10.1403 -10.1403 -10.1401 -10.1401 -10.1400  -6.0774  -6.0774
    -6.0000  -6.0000  -6.0000  -6.0000  -5.9248  -5.9248  -3.7736  -3.7736
    -3.7736  -3.7736  -3.0634  -3.0634  -3.0634  -3.0633  -3.0633  -3.0633
    -2.9579  -2.9579  -2.9579  -2.9578  -2.9578  -2.9578  -1.6859   0.0351
     0.7861   0.7861   0.7862   0.7863   0.7863   0.7863   0.8272   0.8272
     0.8273   0.8274   0.8274   0.8274   1.3672   1.3673   1.3673   1.3674
     1.3674   1.3675   2.8366   2.8368   2.8368   2.8369   2.8369   2.8370
     3.4686   3.4686   3.4827   3.4827   6.0517   6.0517   6.5843   6.5843
     6.5843   6.5843   7.2137   7.2137  10.7907  11.1213  11.1213  11.1213
    11.1214  11.1214  11.1214  11.8836  11.8836  11.8836

[...]

          k = 0.0000-0.5774-0.5393 (  9508 PWs)   bands (ev):

   -12.1493 -12.1493 -12.1491 -12.1491 -10.8732 -10.8732 -10.8731 -10.8731
    -8.4298  -8.4298  -8.4298  -8.4297  -8.4297  -8.4297  -8.4297  -8.4297
    -7.6737  -7.6736  -6.5141  -6.5140  -4.7676  -4.7676  -4.7676  -4.7676
    -4.7675  -4.7675  -4.7675  -4.7674  -1.3962  -1.3962  -1.3961  -1.3961
    -1.3961  -1.3960  -1.3960  -1.3960  -1.1989  -1.1989  -1.1989  -1.1989
    -0.1383  -0.1383  -0.1381  -0.1381   0.1839   0.1839   0.2132   0.2132
     0.2133   0.2133   1.2249   1.2250   1.2250   1.2251   1.3505   1.3505
     1.3505   1.3505   2.3811   2.3812   2.3813   2.3813   3.9853   3.9853
     3.9854   3.9854   3.9854   3.9855   3.9855   3.9855   4.2690   4.2691
     8.2838   8.2838   9.0949   9.0949   9.0950   9.0950   9.0950   9.0950
     9.0950   9.0951  12.8861  12.8862  12.8862  12.8862

     the Fermi energy is     6.5707 ev

!    total energy              =    -677.53970725 Ry
     Harris-Foulkes estimate   =    -677.53970638 Ry
     estimated scf accuracy    <       0.00000032 Ry

     total all-electron energy =     -2757.584709 Ry

     The total energy is the sum of the following terms:

     one-electron contribution =    -108.93607689 Ry
     hartree contribution      =     128.74792693 Ry
     xc contribution           =    -171.72988933 Ry
     ewald contribution        =    -294.54905789 Ry
     one-center paw contrib.   =    -230.91605622 Ry
     smearing contrib. (-TS)   =      -0.15655384 Ry

     convergence has been achieved in   7 iterations

     Forces acting on atoms (cartesian axes, Ry/au):

     atom    1 type  1   force =     0.00000000    0.00000000    0.00000000
     atom    2 type  1   force =     0.00000000    0.00000506   -0.00000000
     atom    3 type  1   force =     0.00000000    0.00000000    0.00000000
     atom    4 type  1   force =     0.00000220    0.00000127    0.00000000
     atom    5 type  1   force =    -0.00000071    0.00000134    0.00000000
     atom    6 type  1   force =     0.00000040    0.00000023   -0.00000000
     atom    7 type  1   force =     0.00000011    0.00000045   -0.00000000
     atom    8 type  1   force =     0.00000000   -0.00000396    0.00000000
     atom    9 type  1   force =     0.00000081   -0.00000129   -0.00000000
     atom   10 type  1   force =     0.00000438   -0.00000253    0.00000000
     atom   11 type  1   force =     0.00000045   -0.00000013    0.00000000
     atom   12 type  1   force =    -0.00000343    0.00000198    0.00000000
     atom   13 type  1   force =     0.00000152   -0.00000006   -0.00000000
     atom   14 type  1   force =    -0.00000104   -0.00000060    0.00000000
     atom   15 type  1   force =     0.00000033   -0.00000032    0.00000000
     atom   16 type  1   force =     0.00000000   -0.00000148    0.00000000
     atom   17 type  1   force =     0.00000071    0.00000134   -0.00000000
     atom   18 type  1   force =    -0.00000040    0.00000023    0.00000000
     atom   19 type  1   force =    -0.00000011    0.00000045    0.00000000
     atom   20 type  1   force =    -0.00000128    0.00000074    0.00000000
     atom   21 type  1   force =     0.00000000    0.00000000    0.00000000
     atom   22 type  1   force =    -0.00000000   -0.00000046    0.00000000
     atom   23 type  1   force =     0.00000000    0.00000000    0.00000000
     atom   24 type  1   force =     0.00000343    0.00000198    0.00000000
     atom   25 type  1   force =    -0.00000152   -0.00000006    0.00000000
     atom   26 type  1   force =     0.00000104   -0.00000060   -0.00000000
     atom   27 type  1   force =    -0.00000033   -0.00000032   -0.00000000
     atom   28 type  1   force =    -0.00000220    0.00000127    0.00000000
     atom   29 type  1   force =     0.00000000    0.00000000    0.00000000
     atom   30 type  1   force =     0.00000000    0.00000120   -0.00000000
     atom   31 type  1   force =     0.00000000    0.00000000    0.00000000
     atom   32 type  1   force =     0.00000128    0.00000074    0.00000000
     atom   33 type  1   force =    -0.00000081   -0.00000129   -0.00000000
     atom   34 type  1   force =    -0.00000438   -0.00000253   -0.00000000
     atom   35 type  1   force =    -0.00000045   -0.00000013   -0.00000000
     atom   36 type  1   force =     0.00000000   -0.00000255    0.00000000

     Total force =     0.000013     Total SCF correction =     0.000568
     SCF correction compared to forces is large: reduce conv_thr to get better values

     BFGS Geometry Optimization

     bfgs converged in   1 scf cycles and   0 bfgs steps
     (criteria: energy <  1.0E-04 Ry, force <  1.0E-02 Ry/Bohr)

     End of BFGS Geometry Optimization

     Final energy   =    -677.5397072499 Ry
Begin final coordinates

ATOMIC_POSITIONS (angstrom)
C        0.000000000   0.000000000   0.000000000
C        0.000000000   1.429607266   0.000000000
C        0.000000000   0.000000000   3.443248707
C        1.238076210   0.714803633   3.443248707
C       -1.238076209   2.144410897   0.000000000
C       -1.238076209   3.574018163   0.000000000
C       -1.238076209   2.144410897   3.443248707
C        0.000000001   2.859214530   3.443248707
C       -2.476152418   4.288821794   0.000000000
C       -2.476152418   5.718429060   0.000000000
C       -2.476152418   4.288821794   3.443248707
C       -1.238076208   5.003625427   3.443248707
C        2.476152418   0.000000000   0.000000000
C        2.476152418   1.429607266   0.000000000
C        2.476152418   0.000000000   3.443248707
C        3.714228628   0.714803633   3.443248707
C        1.238076209   2.144410897   0.000000000
C        1.238076209   3.574018163   0.000000000
C        1.238076209   2.144410897   3.443248707
C        2.476152419   2.859214530   3.443248707
C        0.000000000   4.288821794   0.000000000
C        0.000000000   5.718429060   0.000000000
C        0.000000000   4.288821794   3.443248707
C        1.238076210   5.003625427   3.443248707
C        4.952304836   0.000000000   0.000000000
C        4.952304836   1.429607266   0.000000000
C        4.952304836   0.000000000   3.443248707
C        6.190381046   0.714803633   3.443248707
C        3.714228627   2.144410897   0.000000000
C        3.714228627   3.574018163   0.000000000
C        3.714228627   2.144410897   3.443248707
C        4.952304837   2.859214530   3.443248707
C        2.476152418   4.288821794   0.000000000
C        2.476152418   5.718429060   0.000000000
C        2.476152418   4.288821794   3.443248707
C        3.714228628   5.003625427   3.443248707
End final coordinates

     Writing output data file graph.save/

     General routines

     Parallel routines

   This run was terminated on:  19:55:43  10Mar2024

   JOB DONE.