     Program PWSCF v.6.4.1 starts on 10Mar2024 at 19: 9:26

     R & G space division:  proc/nbgrp/npool/nimage =      16
     Reading input from v16o40.rlx.in

     Current dimensions of program PWSCF are:
     Max number of different atomic species (ntypx) = 10
     Max number of k-points (npk) =  40000
     Max angular momentum in pseudopotentials (lmaxx) =  3

     IMPORTANT: XC functional enforced from input :
     Exchange-correlation      = VDW-DF ( 1  4  4  0 1 0)
     Any further DFT definition will be discarded
     Please, verify this is what you really want

               file V.pbesol-spnl-kjpaw_psl.1.0.0.UPF: wavefunction(s)  3P 3D renormalized
               file O.pbesol-n-kjpaw_psl.1.0.0.UPF: wavefunction(s)  2S 2P renormalized

     Subspace diagonalization in iterative solution of the eigenvalue problem:
     one sub-group per band group will be used

     Found symmetry operation: I + ( -0.0000 -0.5000  0.0000)
     This is a supercell, fractional translations are disabled
     Message from routine setup:
     DEPRECATED: symmetry with ibrav=0, use correct ibrav instead

     bravais-lattice index     =            0
     lattice parameter (alat)  =      13.5330  a.u.
     unit-cell volume          =    4659.2488 (a.u.)^3
     number of atoms/cell      =           56
     number of atomic types    =            2
     number of electrons       =       448.00
     number of Kohn-Sham states=          269
     kinetic-energy cutoff     =      40.0000  Ry
     charge density cutoff     =     400.0000  Ry
     convergence threshold     =      1.0E-06
     mixing beta               =       0.4000
     number of iterations used =            8  plain     mixing
     Exchange-correlation      = VDW-DF ( 1  4  4  0 1 0)
     nstep                     =          500

     celldm(1)=  13.532985  celldm(2)=   0.000000  celldm(3)=   0.000000
     celldm(4)=   0.000000  celldm(5)=   0.000000  celldm(6)=   0.000000

     crystal axes: (cart. coord. in units of alat)
               a(1) = (   1.000000  -0.000000   0.000000 )
               a(2) = (  -0.000000   1.153628   0.000000 )
               a(3) = (   0.000000   0.000000   1.629556 )

     reciprocal axes: (cart. coord. in units 2 pi/alat)
               b(1) = (  1.000000  0.000000 -0.000000 )
               b(2) = (  0.000000  0.866831 -0.000000 )
               b(3) = ( -0.000000 -0.000000  0.613664 )

     PseudoPot. # 1 for V  read from file:
     /home/mpicuntureo/pseudos/V.pbesol-spnl-kjpaw_psl.1.0.0.UPF
     MD5 check sum: d709b3179d4cab0f72010db8785d50db
     Pseudo is Projector augmented-wave + core cor, Zval = 13.0
     Generated using "atomic" code by A. Dal Corso v.6.3
     Shape of augmentation charge: PSQ
     Using radial grid of 1181 points,  6 beta functions with:
                l(1) =   0
                l(2) =   0
                l(3) =   1
                l(4) =   1
                l(5) =   2
                l(6) =   2
     Q(r) pseudized with 0 coefficients

     PseudoPot. # 2 for O  read from file:
     /home/mpicuntureo/pseudos/O.pbesol-n-kjpaw_psl.1.0.0.UPF
     MD5 check sum: cb766521a97cf798d01896eaf7ac9a0a
     Pseudo is Projector augmented-wave + core cor, Zval =  6.0
     Generated using "atomic" code by A. Dal Corso v.6.3
     Shape of augmentation charge: PSQ
     Using radial grid of 1095 points,  4 beta functions with:
                l(1) =   0
                l(2) =   0
                l(3) =   1
                l(4) =   1
     Q(r) pseudized with 0 coefficients

     vdW kernel table read from file vdW_kernel_table
     MD5 check sum: 8c4337f4b28e1601c069d7ef7b6561bc

     atomic species   valence    mass     pseudopotential
        V             13.00    50.94150     V ( 1.00)
        O              6.00    15.99940     O ( 1.00)

      2 Sym. Ops. (no inversion) found

   Cartesian axes

     site n.     atom                  positions (alat units)
         1           V   tau(   1) = (   0.1548513   0.2210409   0.2423034  )
         2           V   tau(   2) = (   0.4048513   0.3472013   0.5724700  )
         3           V   tau(   3) = (   0.4048513   0.3472013   1.0570860  )
         4           V   tau(   4) = (   0.1548513   0.2210409   1.3872527  )
         5           O   tau(   5) = (   0.1548552   0.2800035   0.0000000  )
         6           O   tau(   6) = (   0.1548525  -0.0052330   0.2376924  )
         7           O   tau(   7) = (   0.4048544   0.2831581   0.2928758  )
         8           O   tau(   8) = (   0.1548545   0.2850854   0.5219019  )
         9           O   tau(   9) = (   0.4048529   0.5734746   0.5770840  )
        10           O   tau(  10) = (   0.4048556   0.2882351   0.8147780  )
        11           O   tau(  11) = (   0.4048529   0.5734746   1.0524720  )
        12           O   tau(  12) = (   0.1548545   0.2850854   1.1076541  )
        13           O   tau(  13) = (   0.4048544   0.2831581   1.3366802  )
        14           O   tau(  14) = (   0.1548525  -0.0052330   1.3918637  )
        15           V   tau(  15) = (   0.1548512   0.7978550   0.2423034  )
        16           V   tau(  16) = (   0.4048512   0.9240153   0.5724700  )
        17           V   tau(  17) = (   0.4048512   0.9240153   1.0570860  )
        18           V   tau(  18) = (   0.1548512   0.7978550   1.3872527  )
        19           O   tau(  19) = (   0.1548550   0.8568175   0.0000000  )
        20           O   tau(  20) = (   0.1548523   0.5715810   0.2376924  )
        21           O   tau(  21) = (   0.4048543   0.8599721   0.2928758  )
        22           O   tau(  22) = (   0.1548544   0.8618995   0.5219019  )
        23           O   tau(  23) = (   0.4048528   1.1502886   0.5770840  )
        24           O   tau(  24) = (   0.4048555   0.8650491   0.8147780  )
        25           O   tau(  25) = (   0.4048528   1.1502886   1.0524720  )
        26           O   tau(  26) = (   0.1548544   0.8618995   1.1076541  )
        27           O   tau(  27) = (   0.4048543   0.8599721   1.3366802  )
        28           O   tau(  28) = (   0.1548523   0.5715810   1.3918637  )
        29           V   tau(  29) = (   0.6548513   0.2210408   0.2423034  )
        30           V   tau(  30) = (   0.9048513   0.3472012   0.5724700  )
        31           V   tau(  31) = (   0.9048513   0.3472012   1.0570860  )
        32           V   tau(  32) = (   0.6548513   0.2210408   1.3872527  )
        33           O   tau(  33) = (   0.6548552   0.2800034   0.0000000  )
        34           O   tau(  34) = (   0.6548525  -0.0052331   0.2376924  )
        35           O   tau(  35) = (   0.9048544   0.2831580   0.2928758  )
        36           O   tau(  36) = (   0.6548545   0.2850853   0.5219019  )
        37           O   tau(  37) = (   0.9048529   0.5734745   0.5770840  )
        38           O   tau(  38) = (   0.9048556   0.2882350   0.8147780  )
        39           O   tau(  39) = (   0.9048529   0.5734745   1.0524720  )
        40           O   tau(  40) = (   0.6548545   0.2850853   1.1076541  )
        41           O   tau(  41) = (   0.9048544   0.2831580   1.3366802  )
        42           O   tau(  42) = (   0.6548525  -0.0052331   1.3918637  )
        43           V   tau(  43) = (   0.6548512   0.7978549   0.2423034  )
        44           V   tau(  44) = (   0.9048512   0.9240152   0.5724700  )
        45           V   tau(  45) = (   0.9048512   0.9240152   1.0570860  )
        46           V   tau(  46) = (   0.6548512   0.7978549   1.3872527  )
        47           O   tau(  47) = (   0.6548550   0.8568174   0.0000000  )
        48           O   tau(  48) = (   0.6548523   0.5715809   0.2376924  )
        49           O   tau(  49) = (   0.9048543   0.8599720   0.2928758  )
        50           O   tau(  50) = (   0.6548544   0.8618994   0.5219019  )
        51           O   tau(  51) = (   0.9048528   1.1502885   0.5770840  )
        52           O   tau(  52) = (   0.9048555   0.8650490   0.8147780  )
        53           O   tau(  53) = (   0.9048528   1.1502885   1.0524720  )
        54           O   tau(  54) = (   0.6548544   0.8618994   1.1076541  )
        55           O   tau(  55) = (   0.9048543   0.8599720   1.3366802  )
        56           O   tau(  56) = (   0.6548523   0.5715809   1.3918637  )

     number of k points=     8  gaussian smearing, width (Ry)=  0.1000
                       cart. coord. in units 2pi/alat
        k(    1) = (   0.0000000   0.0000000   0.0000000), wk =   0.2500000
        k(    2) = (   0.0000000   0.0000000  -0.3068320), wk =   0.2500000
        k(    3) = (  -0.0000001  -0.4334153   0.0000000), wk =   0.2500000
        k(    4) = (  -0.0000001  -0.4334153  -0.3068320), wk =   0.2500000
        k(    5) = (  -0.5000000  -0.0000001   0.0000000), wk =   0.2500000
        k(    6) = (  -0.5000000  -0.0000001  -0.3068320), wk =   0.2500000
        k(    7) = (  -0.5000001  -0.4334154   0.0000000), wk =   0.2500000
        k(    8) = (  -0.5000001  -0.4334154  -0.3068320), wk =   0.2500000

     Check: negative core charge=   -0.000007

     Initial potential from superposition of free atoms

     starting charge  447.98644, renormalised to  448.00000

     %%%%%%%%%%%%%%%%%%%%%%%%%%%%%%%%%%%%%%%%%%%%%%%%%%%%%%%%%%%%%%%%%%%%%%%%
     %                                                                      %
     % You are using vdW-DF, which was implemented by the Thonhauser group. %
     % Please cite the following two papers that made this development      %
     % possible and the two reviews that describe the various versions:     %
     %                                                                      %
     %   T. Thonhauser et al., PRL 115, 136402 (2015).                      %
     %   T. Thonhauser et al., PRB 76, 125112 (2007).                       %
     %   K. Berland et al., Rep. Prog. Phys. 78, 066501 (2015).             %
     %   D.C. Langreth et al., J. Phys.: Condens. Matter 21, 084203 (2009). %
     %                                                                      %
     %                                                                      %
     % If you are calculating the stress with vdW-DF, please also cite:     %
     %                                                                      %
     %   R. Sabatini et al., J. Phys.: Condens. Matter 24, 424209 (2012).   %
     %                                                                      %
     %%%%%%%%%%%%%%%%%%%%%%%%%%%%%%%%%%%%%%%%%%%%%%%%%%%%%%%%%%%%%%%%%%%%%%%%

     Starting wfcs are  320 randomized atomic wfcs
     Checking if some PAW data can be deallocated...

     Self-consistent Calculation

     iteration #  1     ecut=    40.00 Ry     beta= 0.40
     Davidson diagonalization with overlap
     ethr =  1.00E-02,  avg # of iterations =  2.0

     total energy              =   -5129.09864882 Ry
     Harris-Foulkes estimate   =   -5151.95340172 Ry
     estimated scf accuracy    <      39.89481093 Ry

[...]

     negative rho (up, down):  2.204E-04 0.000E+00

[...]

     total energy              =   -5145.77058736 Ry
     Harris-Foulkes estimate   =   -5145.77058782 Ry
     estimated scf accuracy    <       0.00000248 Ry

     iteration # 24     ecut=    40.00 Ry     beta= 0.40
     Davidson diagonalization with overlap
     ethr =  5.53E-10,  avg # of iterations =  5.8

[...]

     End of self-consistent calculation

          k = 0.0000 0.0000 0.0000 ( 19937 PWs)   bands (ev):

   -59.4302 -59.4297 -59.4285 -59.4280 -59.4225 -59.4223 -59.4220 -59.4219
   -59.4209 -59.4207 -59.4204 -59.4203 -59.4186 -59.4182 -59.4169 -59.4165
   -33.3952 -33.3928 -33.3875 -33.3864 -33.3864 -33.3850 -33.3845 -33.3845
   -33.3843 -33.3816 -33.3743 -33.3742 -33.3737 -33.3737 -33.3721 -33.3709
   -33.2996 -33.2983 -33.2926 -33.2926 -33.2922 -33.2921 -33.2658 -33.2657
   -33.2654 -33.2653 -33.2547 -33.2519 -33.2258 -33.2234 -33.2019 -33.2019
   -33.2005 -33.2005 -33.1939 -33.1935 -33.1921 -33.1916 -33.1802 -33.1801
   -33.1796 -33.1792 -33.1791 -33.1780 -33.1576 -33.1566 -33.1556 -33.1541
   -13.0559 -12.9159 -12.8760 -12.7604 -12.1178 -12.1177 -12.0654 -11.9933
   -11.9932 -11.9472 -11.9032 -11.9031 -11.8969 -11.8670 -11.8485 -11.8485
   -11.8185 -11.7977 -11.7283 -11.6861 -11.6649 -11.6649 -11.6221 -11.6219
   -11.3887 -11.3641 -11.3640 -11.3606 -11.3431 -11.3033 -11.2875 -11.2874
   -11.2723 -11.2040 -11.1795 -11.1792 -11.1412 -11.1409 -11.1235 -11.0806
     0.0172   0.0173   0.0581   0.0582   0.1833   0.1834   0.1981   0.1982
     0.2052   0.2702   0.2861   0.3114   0.3559   0.3708   0.4442   0.4576
     0.4737   0.5397   0.5400   0.5567   0.5734   0.6541   0.6543   0.6602
     0.7069   0.7974   0.7974   0.8578   0.8578   0.9803   0.9804   0.9804
     1.1135   1.1729   1.2195   1.2197   1.2457   1.4313   1.4313   1.4452
     1.4454   1.7775   1.8668   1.8918   1.9171   1.9301   2.0286   2.0286
     2.0402   2.0403   2.1439   2.1440   2.1552   2.2536   2.2536   2.2540
     2.2871   2.2872   2.3001   2.3057   2.3058   2.4888   2.5180   2.5966
     2.7000   2.7011   2.7603   2.7882   2.8075   2.8219   2.8219   2.8630
     2.8635   2.8959   2.8960   2.9507   2.9814   2.9816   2.9889   3.0090
     3.0229   3.1750   3.2026   3.3171   3.3173   3.3284   3.3444   3.3487
     3.3992   3.3993   3.4912   3.5608   3.5731   3.6073   3.6184   3.6185
     3.6610   3.6610   3.7099   3.7219   3.7236   3.7271   3.8228   3.8320
     3.8320   3.8335   3.9268   3.9517   4.0004   4.0175   4.0176   4.3101
     4.5389   4.5453   4.5453   4.6372   4.6373   4.7294   4.8248   4.8248
     6.4964   6.5700   6.6975   6.8098   6.9805   6.9805   7.0814   7.0814
     7.6315   7.6315   7.7318   7.8111   7.8124   7.8124   7.8272   7.9265
     7.9266   7.9778   7.9829   7.9858   8.0043   8.0044   8.1296   8.1646
     8.2456   8.2708   8.2709   8.2827   8.2852   8.2948   8.2949   8.5703
     8.5703   8.6163   8.6416   8.6416   8.6758   8.6758   8.7266   8.8015
     8.8090   8.8091   8.8430   8.9162   8.9202

          k = 0.0000 0.0000-0.3068 ( 19884 PWs)   bands (ev):

[...]

          k =-0.0000-0.4334 0.0000 ( 19880 PWs)   bands (ev):

[...]

          k =-0.5000-0.4334-0.3068 ( 19872 PWs)   bands (ev):

   -59.4270 -59.4269 -59.4265 -59.4265 -59.4265 -59.4264 -59.4262 -59.4261
   -59.4186 -59.4185 -59.4182 -59.4181 -59.4181 -59.4181 -59.4178 -59.4177
   -33.3868 -33.3868 -33.3864 -33.3864 -33.3863 -33.3863 -33.3860 -33.3859
   -33.3770 -33.3770 -33.3766 -33.3766 -33.3765 -33.3765 -33.3762 -33.3761
   -33.2845 -33.2841 -33.2840 -33.2839 -33.2839 -33.2838 -33.2837 -33.2834
   -33.2383 -33.2382 -33.2380 -33.2380 -33.2379 -33.2378 -33.2377 -33.2376
   -33.1860 -33.1857 -33.1856 -33.1856 -33.1855 -33.1854 -33.1853 -33.1852
   -33.1741 -33.1739 -33.1738 -33.1737 -33.1737 -33.1736 -33.1734 -33.1733
   -12.5671 -12.5671 -12.5670 -12.5670 -12.5668 -12.5668 -12.5668 -12.5667
   -11.7669 -11.7668 -11.7668 -11.7667 -11.7666 -11.7665 -11.7665 -11.7665
   -11.7625 -11.7624 -11.7623 -11.7623 -11.7622 -11.7622 -11.7619 -11.7618
   -11.3112 -11.3112 -11.3111 -11.3111 -11.3111 -11.3111 -11.3110 -11.3110
   -11.1962 -11.1961 -11.1961 -11.1961 -11.1961 -11.1960 -11.1960 -11.1960
    -0.1254  -0.1253  -0.1253  -0.1253  -0.1250  -0.1250  -0.1250  -0.1250
     0.4708   0.4709   0.4709   0.4711   0.4711   0.4711   0.4713   0.4715
     0.8676   0.8677   0.8677   0.8677   0.8678   0.8679   0.8679   0.8679
     1.0721   1.0721   1.0721   1.0722   1.0722   1.0722   1.0723   1.0723
     1.3496   1.3496   1.3496   1.3497   1.3497   1.3497   1.3498   1.3498
     1.4307   1.4308   1.4308   1.4309   1.4309   1.4309   1.4310   1.4311
     2.0187   2.0188   2.0188   2.0189   2.0189   2.0189   2.0189   2.0189
     2.5479   2.5479   2.5480   2.5480   2.5480   2.5480   2.5481   2.5482
     2.6543   2.6543   2.6543   2.6544   2.6544   2.6544   2.6544   2.6544
     2.7823   2.7824   2.7825   2.7825   2.7825   2.7825   2.7826   2.7826
     3.2281   3.2282   3.2282   3.2283   3.2283   3.2284   3.2284   3.2284
     3.6936   3.6936   3.6936   3.6937   3.6938   3.6938   3.6939   3.6939
     4.0234   4.0234   4.0235   4.0236   4.0236   4.0237   4.0237   4.0238
     4.2234   4.2234   4.2235   4.2235   4.2235   4.2235   4.2235   4.2236
     4.3377   4.3378   4.3378   4.3378   4.3378   4.3378   4.3378   4.3378
     6.9334   6.9338   6.9338   6.9339   6.9339   6.9340   6.9340   6.9343
     7.8213   7.8216   7.8216   7.8217   7.8218   7.8219   7.8219   7.8220
     8.0110   8.0111   8.0111   8.0112   8.0113   8.0113   8.0114   8.0115
     8.1896   8.1897   8.1898   8.1898   8.1900   8.1900   8.1901   8.1901
     8.3667   8.3671   8.3671   8.3671   8.3671   8.3673   8.3674   8.3674
     8.4618   8.4619   8.4619   8.4620   8.4620

     the Fermi energy is     5.8016 ev

!    total energy              =   -5145.77058728 Ry
     Harris-Foulkes estimate   =   -5145.77058759 Ry
     estimated scf accuracy    <       0.00000043 Ry

     total all-electron energy =    -36454.330327 Ry

     The total energy is the sum of the following terms:

     one-electron contribution =   -2172.52823075 Ry
     hartree contribution      =    1274.09746799 Ry
     xc contribution           =    -635.35390639 Ry
     ewald contribution        =   -2072.98723924 Ry
     one-center paw contrib.   =   -1538.24132763 Ry
     smearing contrib. (-TS)   =      -0.75735126 Ry

     convergence has been achieved in  24 iterations

     negative rho (up, down):  2.439E-03 0.000E+00

     Forces acting on atoms (cartesian axes, Ry/au):

     atom    1 type  1   force =     0.00004458   -0.00118727   -0.00258905
     atom    2 type  1   force =    -0.00002548    0.00125856    0.00260887
     atom    3 type  1   force =    -0.00002548    0.00125856   -0.00260887
     atom    4 type  1   force =     0.00004458   -0.00118727    0.00258905
     atom    5 type  2   force =     0.00000298    0.00127923    0.00000000
     atom    6 type  2   force =     0.00000241   -0.00183973    0.00052143
     atom    7 type  2   force =    -0.00000479    0.00135089    0.00112154
     atom    8 type  2   force =    -0.00001366   -0.00136699   -0.00111859
     atom    9 type  2   force =    -0.00000041    0.00182399   -0.00051889
     atom   10 type  2   force =    -0.00000114   -0.00127160    0.00000000
     atom   11 type  2   force =    -0.00000041    0.00182399    0.00051889
     atom   12 type  2   force =    -0.00001366   -0.00136699    0.00111859
     atom   13 type  2   force =    -0.00000479    0.00135089   -0.00112154
     atom   14 type  2   force =     0.00000241   -0.00183973   -0.00052143
     atom   15 type  1   force =     0.00006240   -0.00124226   -0.00257331
     atom   16 type  1   force =    -0.00002687    0.00119523    0.00268644
     atom   17 type  1   force =    -0.00002687    0.00119523   -0.00268644
     atom   18 type  1   force =     0.00006240   -0.00124226    0.00257331
     atom   19 type  2   force =     0.00000187    0.00126237    0.00000000
     atom   20 type  2   force =    -0.00000018   -0.00179929    0.00050760
     atom   21 type  2   force =    -0.00000649    0.00135940    0.00112830
     atom   22 type  2   force =    -0.00000822   -0.00136197   -0.00113909
     atom   23 type  2   force =    -0.00000043    0.00179415   -0.00051139
     atom   24 type  2   force =    -0.00000409   -0.00127601    0.00000000
     atom   25 type  2   force =    -0.00000043    0.00179415    0.00051139
     atom   26 type  2   force =    -0.00000822   -0.00136197    0.00113909
     atom   27 type  2   force =    -0.00000649    0.00135940   -0.00112830
     atom   28 type  2   force =    -0.00000018   -0.00179929   -0.00050760
     atom   29 type  1   force =     0.00002584   -0.00120047   -0.00258092
     atom   30 type  1   force =    -0.00001896    0.00118349    0.00263921
     atom   31 type  1   force =    -0.00001896    0.00118349   -0.00263921
     atom   32 type  1   force =     0.00002584   -0.00120047    0.00258092
     atom   33 type  2   force =     0.00000619    0.00128756    0.00000000
     atom   34 type  2   force =     0.00000459   -0.00182647    0.00052400
     atom   35 type  2   force =    -0.00000946    0.00135853    0.00112254
     atom   36 type  2   force =    -0.00000035   -0.00136539   -0.00112311
     atom   37 type  2   force =    -0.00000267    0.00178931   -0.00051883
     atom   38 type  2   force =    -0.00000503   -0.00123736    0.00000000
     atom   39 type  2   force =    -0.00000267    0.00178931    0.00051883
     atom   40 type  2   force =    -0.00000035   -0.00136539    0.00112311
     atom   41 type  2   force =    -0.00000946    0.00135853   -0.00112254
     atom   42 type  2   force =     0.00000459   -0.00182647   -0.00052400
     atom   43 type  1   force =     0.00000564   -0.00123338   -0.00256919
     atom   44 type  1   force =    -0.00001941    0.00121478    0.00268660
     atom   45 type  1   force =    -0.00001941    0.00121478   -0.00268660
     atom   46 type  1   force =     0.00000564   -0.00123338    0.00256919
     atom   47 type  2   force =     0.00000628    0.00126032    0.00000000
     atom   48 type  2   force =     0.00000794   -0.00178581    0.00050849
     atom   49 type  2   force =    -0.00000813    0.00135493    0.00112910
     atom   50 type  2   force =    -0.00000710   -0.00136165   -0.00114159
     atom   51 type  2   force =    -0.00000245    0.00185817   -0.00050939
     atom   52 type  2   force =    -0.00000376   -0.00124603    0.00000000
     atom   53 type  2   force =    -0.00000245    0.00185817    0.00050939
     atom   54 type  2   force =    -0.00000710   -0.00136165    0.00114159
     atom   55 type  2   force =    -0.00000813    0.00135493   -0.00112910
     atom   56 type  2   force =     0.00000794   -0.00178581   -0.00050849

     Total force =     0.015903     Total SCF correction =     0.001823
     SCF correction compared to forces is large: reduce conv_thr to get better values

     BFGS Geometry Optimization

     bfgs converged in   1 scf cycles and   0 bfgs steps
     (criteria: energy <  1.0E-04 Ry, force <  1.0E-02 Ry/Bohr)

     End of BFGS Geometry Optimization

     Final energy   =   -5145.7705872811 Ry
Begin final coordinates

ATOMIC_POSITIONS (angstrom)
V        1.108943983   1.582950957   1.735218637
V        2.899280770   2.486429040   4.099656563
V        2.899280770   2.486429040   7.570159619
V        1.108943983   1.582950957   9.934598066
O        1.108971644   2.005201992   0.000000000
O        1.108952199  -0.037475288   1.702198008
O        2.899303159   2.027793352   2.097385599
O        1.108966749   2.041595808   3.737521047
O        2.899292284   4.106850414   4.132698936
O        2.899311841   2.064151649   5.834908265
O        2.899292284   4.106850414   7.537117593
O        1.108966749   2.041595808   7.932295830
O        2.899303159   2.027793352   9.572431278
O        1.108952199  -0.037475288   9.967619218
V        1.108943017   5.713716486   1.735218637
V        2.899279804   6.617194569   4.099656563
V        2.899279804   6.617194569   7.570159619
V        1.108943017   5.713716486   9.934598066
O        1.108970678   6.135967521   0.000000000
O        1.108951233   4.093290241   1.702198008
O        2.899302193   6.158558881   2.097385599
O        1.108965783   6.172361337   3.737521047
O        2.899291318   8.237615943   4.132698936
O        2.899310875   6.194917178   5.834908265
O        2.899291318   8.237615943   7.537117593
O        1.108965783   6.172361337   7.932295830
O        2.899302193   6.158558881   9.572431278
O        1.108951233   4.093290241   9.967619218
V        4.689617576   1.582950211   1.735218637
V        6.479954363   2.486428294   4.099656563
V        6.479954363   2.486428294   7.570159619
V        4.689617576   1.582950211   9.934598066
O        4.689645237   2.005201246   0.000000000
O        4.689625792  -0.037476034   1.702198008
O        6.479976752   2.027792606   2.097385599
O        4.689640342   2.041595062   3.737521047
O        6.479965877   4.106849668   4.132698936
O        6.479985434   2.064150903   5.834908265
O        6.479965877   4.106849668   7.537117593
O        4.689640342   2.041595062   7.932295830
O        6.479976752   2.027792606   9.572431278
O        4.689625792  -0.037476034   9.967619218
V        4.689616610   5.713715740   1.735218637
V        6.479953397   6.617193823   4.099656563
V        6.479953397   6.617193823   7.570159619
V        4.689616610   5.713715740   9.934598066
O        4.689644271   6.135966775   0.000000000
O        4.689624826   4.093289495   1.702198008
O        6.479975786   6.158558135   2.097385599
O        4.689639376   6.172360591   3.737521047
O        6.479964911   8.237615197   4.132698936
O        6.479984468   6.194916432   5.834908265
O        6.479964911   8.237615197   7.537117593
O        4.689639376   6.172360591   7.932295830
O        6.479975786   6.158558135   9.572431278
O        4.689624826   4.093289495   9.967619218
End final coordinates

     Writing output data file v16o40.save/

     General routines

     Parallel routines

   This run was terminated on:  21: 3:48  10Mar2024

   JOB DONE.