     Program PHONON v.6.7MaX starts on 13Oct2024 at 19:26:11

     R & G space division:  proc/nbgrp/npool/nimage =      32
     Reading input from ph.in
      Title line not specified: using 'default'.

     Reading xml data from directory:

     outdir/v2o5.save/
     Message from routine read_pp_mesh:
     mesh size missing, using the one in header
     Message from routine read_pp_mesh:
     mesh size missing, using the one in header

     IMPORTANT: XC functional enforced from input :
     Exchange-correlation= VDW-DF
                           (   1   4   4   0   1   0   0)
     Any further DFT definition will be discarded
     Please, verify this is what you really want

     %%%%%%%%%%%%%%%%%%%%%%%%%%%%%%%%%%%%%%%%%%%%%%%%%%%%%%%%%%%%%%%%%%%%%%%%
     %                                                                      %
     % You are using vdW-DF, which was implemented by the Thonhauser group. %
     % Please cite the following two papers that made this development      %
     % possible and the two reviews that describe the various versions:     %
     %                                                                      %
     %   T. Thonhauser et al., PRL 115, 136402 (2015).                      %
     %   T. Thonhauser et al., PRB 76, 125112 (2007).                       %
     %   K. Berland et al., Rep. Prog. Phys. 78, 066501 (2015).             %
     %   D.C. Langreth et al., J. Phys.: Condens. Matter 21, 084203 (2009). %
     %                                                                      %
     %                                                                      %
     % If you are calculating the stress with vdW-DF, please also cite:     %
     %                                                                      %
     %   R. Sabatini et al., J. Phys.: Condens. Matter 24, 424209 (2012).   %
     %                                                                      %
     %%%%%%%%%%%%%%%%%%%%%%%%%%%%%%%%%%%%%%%%%%%%%%%%%%%%%%%%%%%%%%%%%%%%%%%%

     Reading collected, re-writing distributed wavefunctions

     Calculation of q =    0.0000000   0.0000000   0.0000000

     default

     bravais-lattice index     =            8
     lattice parameter (alat)  =       6.7655  a.u.
     unit-cell volume          =    1321.4657 (a.u.)^3
     number of atoms/cell      =           14
     number of atomic types    =            2
     kinetic-energy cut-off    =      80.0000  Ry
     charge density cut-off    =     800.0000  Ry
     convergence threshold     =      1.0E-14
     beta                      =       0.5000
     number of iterations used =            4
     Exchange-correlation= VDW-DF
                           (   1   4   4   0   1   0   0)

     celldm(1)=    6.76554  celldm(2)=    1.30978  celldm(3)=    3.25798
     celldm(4)=    0.00000  celldm(5)=    0.00000  celldm(6)=    0.00000

     crystal axes: (cart. coord. in units of alat)
               a(1) = (  1.0000  0.0000  0.0000 )
               a(2) = (  0.0000  1.3098  0.0000 )
               a(3) = (  0.0000  0.0000  3.2580 )

     reciprocal axes: (cart. coord. in units 2 pi/alat)
               b(1) = (  1.0000  0.0000  0.0000 )
               b(2) = (  0.0000  0.7635  0.0000 )
               b(3) = (  0.0000  0.0000  0.3069 )

     Atoms inside the unit cell:

     Cartesian axes

     site n.  atom      mass           positions (alat units)
        1     V   50.9415   tau(    1) = (    0.00000    0.51005    2.10986  )
        2     V   50.9415   tau(    2) = (    0.50000    0.79973    2.77712  )
        3     V   50.9415   tau(    3) = (    0.50000    0.79973    0.48087  )
        4     V   50.9415   tau(    4) = (    0.00000    0.51005    1.14813  )
        5     O   15.9994   tau(    5) = (    0.50000    0.64778    2.21935  )
        6     O   15.9994   tau(    6) = (    0.00000    0.66201    2.66763  )
        7     O   15.9994   tau(    7) = (    0.00000    0.66201    0.59036  )
        8     O   15.9994   tau(    8) = (    0.50000    0.64778    1.03864  )
        9     O   15.9994   tau(    9) = (    0.00000    0.06561    1.16359  )
       10     O   15.9994   tau(   10) = (    0.50000    1.24417    0.46541  )
       11     O   15.9994   tau(   11) = (    0.50000    1.24417    2.79258  )
       12     O   15.9994   tau(   12) = (    0.50000    0.65382    0.00000  )
       13     O   15.9994   tau(   13) = (    0.00000    0.65596    1.62899  )
       14     O   15.9994   tau(   14) = (    0.00000    0.06561    2.09440  )

     Computing dynamical matrix for
                    q = (   0.0000000   0.0000000   0.0000000 )

      9 Sym.Ops. (with q -> -q+G )

     G cutoff =  927.5448  (  15784 G-vectors)     FFT grid: ( 64, 80,200)
     G cutoff =  371.0179  (   4000 G-vectors)  smooth grid: ( 40, 54,128)
     number of k points=     4
                       cart. coord. in units 2pi/alat
        k(    1) = (   0.0000000   0.0000000   0.0000000), wk =   0.2222222
        k(    2) = (   0.0000000   0.2544947   0.0000000), wk =   0.4444444
        k(    3) = (   0.3333333   0.0000000   0.0000000), wk =   0.4444444
        k(    4) = (   0.3333333   0.2544947   0.0000000), wk =   0.8888889

     PseudoPot. # 1 for V  read from file:
     /home/mpicuntureo/pseudos/v.nc.upf
     MD5 check sum: 40fb93c06b4f9d8c28c5ccd071294a04
     Pseudo is Norm-conserving + core correction, Zval = 13.0
     Generated using ONCVPSP code by D. R. Hamann
     Using radial grid of 1536 points,  6 beta functions with:
                l(1) =   0
                l(2) =   0
                l(3) =   1
                l(4) =   1
                l(5) =   2
                l(6) =   2

     PseudoPot. # 2 for O  read from file:
     /home/mpicuntureo/pseudos/o.nc.upf
     MD5 check sum: 3e3f909f7470e8921608ab6b1f57bbae
     Pseudo is Norm-conserving + core correction, Zval =  6.0
     Generated using ONCVPSP code by D. R. Hamann
     Using radial grid of  936 points,  5 beta functions with:
                l(1) =   0
                l(2) =   0
                l(3) =   1
                l(4) =   1
                l(5) =   2

     Mode symmetry, D_2h (mmm)  point group:

     Electric field:
     Dielectric constant
     Born effective charges as d Force / d E
     Raman tensor

     Atomic displacements:
     There are   42 irreducible representations

     Representation     1      1 modes -  To be done

[...]

     Representation    42      1 modes -  To be done

     Alpha used in Ewald sum =   2.8000

     Electric Fields Calculation

      thresh= 1.000E-02 alpha_mix =  0.500 |ddv_scf|^2 =  3.282E-07

[...]

     End of electric fields calculation

          Dielectric constant in cartesian axis

          (       5.650965889       0.000000000       0.000000000 )
          (       0.000000000       3.300272117       0.000000000 )
          (       0.000000000       0.000000000       6.393983787 )

          Effective charges (d Force / dE) in cartesian axis

           atom      1   V
      Ex  (        6.26789        0.00000        0.00000 )
      Ey  (       -0.00000        2.83722       -0.04065 )
      Ez  (        0.00000       -0.49396        6.64824 )
           atom      2   V
      Ex  (        6.26789        0.00000        0.00000 )
      Ey  (        0.00000        2.83722       -0.04065 )
      Ez  (       -0.00000       -0.49396        6.64824 )
           atom      3   V
      Ex  (        6.26789        0.00000       -0.00000 )
      Ey  (       -0.00000        2.83722        0.04065 )
      Ez  (        0.00000        0.49396        6.64824 )
           atom      4   V
      Ex  (        6.26789        0.00000        0.00000 )
      Ey  (        0.00000        2.83722        0.04065 )
      Ez  (        0.00000        0.49396        6.64824 )
           atom      5   O
      Ex  (       -5.22693       -0.00000        0.00000 )
      Ey  (        0.00000       -0.69744       -0.29785 )
      Ez  (        0.00000       -0.80718       -2.70826 )
           atom      6   O
      Ex  (       -5.22693       -0.00000       -0.00000 )
      Ey  (        0.00000       -0.69744       -0.29785 )
      Ez  (       -0.00000       -0.80718       -2.70826 )
           atom      7   O
      Ex  (       -5.22693       -0.00000       -0.00000 )
      Ey  (        0.00000       -0.69744        0.29785 )
      Ez  (        0.00000        0.80718       -2.70826 )
           atom      8   O
      Ex  (       -5.22693       -0.00000        0.00000 )
      Ey  (        0.00000       -0.69744        0.29785 )
      Ez  (        0.00000        0.80718       -2.70826 )
           atom      9   O
      Ex  (       -0.51457       -0.00000        0.00000 )
      Ey  (        0.00000       -1.83675       -0.08004 )
      Ez  (        0.00000       -0.18196       -0.47932 )
           atom     10   O
      Ex  (       -0.51457       -0.00000        0.00000 )
      Ey  (        0.00000       -1.83675       -0.08004 )
      Ez  (        0.00000       -0.18196       -0.47932 )
           atom     11   O
      Ex  (       -0.51457       -0.00000        0.00000 )
      Ey  (        0.00000       -1.83675        0.08004 )
      Ez  (        0.00000        0.18196       -0.47932 )
           atom     12   O
      Ex  (       -1.03764       -0.00000        0.00000 )
      Ey  (        0.00000       -0.62975        0.00000 )
      Ez  (       -0.00000        0.00000       -7.05577 )
           atom     13   O
      Ex  (       -1.03764       -0.00000       -0.00000 )
      Ey  (        0.00000       -0.62975        0.00000 )
      Ez  (        0.00000        0.00000       -7.05577 )
           atom     14   O
      Ex  (       -0.51457       -0.00000       -0.00000 )
      Ey  (        0.00000       -1.83675        0.08004 )
      Ez  (        0.00000        0.18196       -0.47932 )

     Calling punch_plot_e
     Writing on file  drho

     Computing Pc [DH,Drho] |psi>

     Derivative coefficient:  0.001000    Threshold: 1.00E-12
     Non-scf  u_k: avg # of iterations = 29.7
     Non-scf Du_k: avg # of iterations = 57.5

          Dielectric constant from finite-differences

[...]

     Computing Second order response

      iter #   1   av.it.:  18.1
      thresh= 1.000E-02 alpha_mix =  0.500 |ddv_scf|^2 =  3.327E-03

[...]

      iter #  27   av.it.:  15.0
      thresh= 1.814E-08 alpha_mix =  0.500 |ddv_scf|^2 =  1.154E-15

          Raman tensor (au^-1) in cartesian axis

           atom      1
          (       0.000000000       0.492067634       1.049325973 )
          (       0.492067634       0.000000000       0.000000000 )
          (       1.049325973       0.000000000      -0.000000000 )

[...]

           atom     14
          (       0.000000000      -0.149109424       0.007721254 )
          (      -0.149109424       0.000000000       0.000000000 )
          (       0.007721254       0.000000000       0.000000000 )

[...]

     Raman tensor (A^2)

     atom #    1    pol.  1
      0.000000000000E+00      0.144901575134E+02      0.309000177985E+02
      0.144901575134E+02      0.000000000000E+00      0.000000000000E+00
      0.309000177985E+02      0.000000000000E+00     -0.770017590970E-16
     atom #    1    pol.  2
[...]
     -0.407558878332E+01      0.595536743443E-16      0.000000000000E+00
      0.595536743443E-16      0.146725017114E+01      0.195316661262E+01
      0.000000000000E+00      0.195316661262E+01      0.686573562222E+01
     atom #    5    pol.  3
     -0.101920911757E+02      0.000000000000E+00     -0.385008795485E-16
      0.000000000000E+00     -0.301657134539E+00      0.472052323758E+01
     -0.385008795485E-16      0.472052323758E+01     -0.348275471093E+01
     atom #    6    pol.  1
      0.000000000000E+00      0.934164203397E+01      0.205943922830E+02
      0.934164203397E+01      0.000000000000E+00      0.000000000000E+00
      0.205943922830E+02      0.000000000000E+00      0.000000000000E+00
     atom #    6    pol.  2
      0.407558878332E+01      0.595536743443E-16      0.000000000000E+00
      0.595536743443E-16     -0.146725017114E+01     -0.195316661262E+01
      0.000000000000E+00     -0.195316661262E+01     -0.686573562222E+01
     atom #    6    pol.  3
      0.101920911757E+02     -0.119709775149E-16      0.000000000000E+00
     -0.119709775149E-16      0.301657134539E+00     -0.472052323758E+01
      0.000000000000E+00     -0.472052323758E+01      0.348275471093E+01
     atom #    7    pol.  1
      0.000000000000E+00      0.934164203397E+01     -0.205943922830E+02
      0.934164203397E+01      0.595536743443E-16     -0.119709775149E-16
     -0.205943922830E+02     -0.119709775149E-16      0.000000000000E+00
     atom #    7    pol.  2
      0.407558878332E+01     -0.595536743443E-16      0.000000000000E+00
     -0.595536743443E-16     -0.146725017114E+01      0.195316661262E+01
      0.000000000000E+00      0.195316661262E+01     -0.686573562222E+01
     atom #    7    pol.  3
     -0.101920911757E+02      0.000000000000E+00      0.385008795485E-16
      0.000000000000E+00     -0.301657134539E+00     -0.472052323758E+01
      0.385008795485E-16     -0.472052323758E+01     -0.348275471093E+01
     atom #    8    pol.  1
      0.000000000000E+00     -0.934164203397E+01      0.205943922830E+02
     -0.934164203397E+01      0.000000000000E+00      0.000000000000E+00
      0.205943922830E+02      0.000000000000E+00      0.000000000000E+00
     atom #    8    pol.  2
     -0.407558878332E+01     -0.595536743443E-16      0.000000000000E+00
     -0.595536743443E-16      0.146725017114E+01     -0.195316661262E+01
      0.000000000000E+00     -0.195316661262E+01      0.686573562222E+01
     atom #    8    pol.  3
      0.101920911757E+02     -0.119709775149E-16      0.000000000000E+00
     -0.119709775149E-16      0.301657134539E+00      0.472052323758E+01
      0.000000000000E+00      0.472052323758E+01      0.348275471093E+01
     atom #    9    pol.  1
     -0.255416275039E-16     -0.439089850740E+01     -0.227371576445E+00
     -0.439089850740E+01      0.119107348689E-15      0.000000000000E+00
     -0.227371576445E+00      0.000000000000E+00      0.000000000000E+00
     atom #    9    pol.  2
     -0.169577808811E+02      0.000000000000E+00      0.000000000000E+00
      0.000000000000E+00     -0.166418068150E+02     -0.140370665313E+01
      0.000000000000E+00     -0.140370665313E+01     -0.156378868481E+02
     atom #    9    pol.  3
     -0.168294599677E+00      0.000000000000E+00     -0.770017590970E-16
      0.000000000000E+00     -0.118255653834E+01     -0.363702910012E+01
     -0.770017590970E-16     -0.363702910012E+01      0.307493228527E+01
     atom #   10    pol.  1
      0.000000000000E+00      0.439089850740E+01      0.227371576445E+00
      0.439089850740E+01     -0.119107348689E-15      0.119709775149E-16
      0.227371576445E+00      0.119709775149E-16      0.000000000000E+00
     atom #   10    pol.  2
      0.169577808811E+02      0.595536743443E-16      0.000000000000E+00
      0.595536743443E-16      0.166418068150E+02      0.140370665313E+01
      0.000000000000E+00      0.140370665313E+01      0.156378868481E+02
     atom #   10    pol.  3
      0.168294599677E+00      0.000000000000E+00      0.000000000000E+00
      0.000000000000E+00      0.118255653834E+01      0.363702910012E+01
      0.000000000000E+00      0.363702910012E+01     -0.307493228527E+01
     atom #   11    pol.  1
      0.255416275039E-16      0.439089850740E+01     -0.227371576445E+00
      0.439089850740E+01     -0.119107348689E-15      0.000000000000E+00
     -0.227371576445E+00      0.000000000000E+00      0.000000000000E+00
     atom #   11    pol.  2
      0.169577808811E+02      0.000000000000E+00      0.000000000000E+00
      0.000000000000E+00      0.166418068150E+02     -0.140370665313E+01
      0.000000000000E+00     -0.140370665313E+01      0.156378868481E+02
     atom #   11    pol.  3
     -0.168294599677E+00      0.000000000000E+00      0.770017590970E-16
      0.000000000000E+00     -0.118255653834E+01      0.363702910012E+01
      0.770017590970E-16      0.363702910012E+01      0.307493228527E+01
     atom #   12    pol.  1
      0.255416275039E-16     -0.647870126510E+00      0.000000000000E+00
     -0.647870126510E+00      0.297768371722E-16      0.000000000000E+00
      0.000000000000E+00      0.000000000000E+00      0.000000000000E+00
     atom #   12    pol.  2
     -0.243182652589E+01      0.595536743443E-16      0.365325241544E-21
      0.595536743443E-16     -0.302469039936E+01     -0.139460008136E-21
      0.365325241544E-21     -0.139460008136E-21     -0.611563834526E+01
     atom #   12    pol.  3
      0.765596009310E-20      0.000000000000E+00      0.000000000000E+00
      0.000000000000E+00      0.000000000000E+00     -0.186404290876E+01
      0.000000000000E+00     -0.186404290876E+01      0.000000000000E+00
     atom #   13    pol.  1
     -0.255416275039E-16      0.647870126510E+00      0.191399002327E-20
      0.647870126510E+00     -0.297768371722E-16      0.000000000000E+00
      0.191399002327E-20      0.000000000000E+00      0.000000000000E+00
     atom #   13    pol.  2
      0.243182652589E+01     -0.595536743443E-16      0.913313103860E-22
     -0.595536743443E-16      0.302469039936E+01      0.000000000000E+00
      0.913313103860E-22      0.000000000000E+00      0.611563834526E+01
     atom #   13    pol.  3
      0.000000000000E+00      0.000000000000E+00      0.000000000000E+00
      0.000000000000E+00      0.000000000000E+00      0.186404290876E+01
      0.000000000000E+00      0.186404290876E+01      0.288510586617E-20
     atom #   14    pol.  1
      0.000000000000E+00     -0.439089850740E+01      0.227371576445E+00
     -0.439089850740E+01      0.119107348689E-15      0.119709775149E-16
      0.227371576445E+00      0.119709775149E-16      0.000000000000E+00
     atom #   14    pol.  2
     -0.169577808811E+02     -0.595536743443E-16      0.000000000000E+00
     -0.595536743443E-16     -0.166418068150E+02      0.140370665313E+01
      0.000000000000E+00      0.140370665313E+01     -0.156378868481E+02
     atom #   14    pol.  3
      0.168294599677E+00      0.000000000000E+00      0.000000000000E+00
      0.000000000000E+00      0.118255653834E+01     -0.363702910012E+01
      0.000000000000E+00     -0.363702910012E+01     -0.307493228527E+01

     Representation #   1 mode #   1

     Self-consistent Calculation

[...]

     End of self-consistent calculation

     Convergence has been achieved

[...]

     Representation #  42 mode #  42

     Self-consistent Calculation

[...]

      thresh= 1.676E-08 alpha_mix =  0.500 |ddv_scf|^2 =  9.105E-16

     End of self-consistent calculation

     Convergence has been achieved

     Number of q in the star =    1
     List of q in the star:
          1   0.000000000   0.000000000   0.000000000

          Dielectric constant in cartesian axis

          (       5.651752002       0.000000000       0.000000000 )
          (       0.000000000       3.303632085       0.000000000 )
          (       0.000000000       0.000000000       6.395080903 )

          Effective charges (d Force / dE) in cartesian axis

           atom      1   V
      Ex  (        6.26789        0.00000        0.00000 )
      Ey  (       -0.00000        2.83722       -0.04065 )
      Ez  (        0.00000       -0.49396        6.64824 )
           atom      2   V
      Ex  (        6.26789        0.00000        0.00000 )
      Ey  (        0.00000        2.83722       -0.04065 )
      Ez  (       -0.00000       -0.49396        6.64824 )
           atom      3   V
      Ex  (        6.26789        0.00000       -0.00000 )
      Ey  (       -0.00000        2.83722        0.04065 )
      Ez  (        0.00000        0.49396        6.64824 )
           atom      4   V
      Ex  (        6.26789        0.00000        0.00000 )
      Ey  (        0.00000        2.83722        0.04065 )
      Ez  (        0.00000        0.49396        6.64824 )
           atom      5   O
      Ex  (       -5.22693       -0.00000        0.00000 )
      Ey  (        0.00000       -0.69744       -0.29785 )
      Ez  (        0.00000       -0.80718       -2.70826 )
           atom      6   O
      Ex  (       -5.22693       -0.00000       -0.00000 )
      Ey  (        0.00000       -0.69744       -0.29785 )
      Ez  (       -0.00000       -0.80718       -2.70826 )
           atom      7   O
      Ex  (       -5.22693       -0.00000       -0.00000 )
      Ey  (        0.00000       -0.69744        0.29785 )
      Ez  (        0.00000        0.80718       -2.70826 )
           atom      8   O
      Ex  (       -5.22693       -0.00000        0.00000 )
      Ey  (        0.00000       -0.69744        0.29785 )
      Ez  (        0.00000        0.80718       -2.70826 )
           atom      9   O
      Ex  (       -0.51457       -0.00000        0.00000 )
      Ey  (        0.00000       -1.83675       -0.08004 )
      Ez  (        0.00000       -0.18196       -0.47932 )
           atom     10   O
      Ex  (       -0.51457       -0.00000        0.00000 )
      Ey  (        0.00000       -1.83675       -0.08004 )
      Ez  (        0.00000       -0.18196       -0.47932 )
           atom     11   O
      Ex  (       -0.51457       -0.00000        0.00000 )
      Ey  (        0.00000       -1.83675        0.08004 )
      Ez  (        0.00000        0.18196       -0.47932 )
           atom     12   O
      Ex  (       -1.03764       -0.00000        0.00000 )
      Ey  (        0.00000       -0.62975        0.00000 )
      Ez  (       -0.00000        0.00000       -7.05577 )
           atom     13   O
      Ex  (       -1.03764       -0.00000       -0.00000 )
      Ey  (        0.00000       -0.62975        0.00000 )
      Ez  (        0.00000        0.00000       -7.05577 )
           atom     14   O
      Ex  (       -0.51457       -0.00000       -0.00000 )
      Ey  (        0.00000       -1.83675        0.08004 )
      Ez  (        0.00000        0.18196       -0.47932 )

     Diagonalizing the dynamical matrix

     q = (    0.000000000   0.000000000   0.000000000 )

     freq (    1) =      -0.416388 [THz] =     -13.889203 [cm-1]
     freq (    2) =      -0.153068 [THz] =      -5.105791 [cm-1]
     freq (    3) =       0.528400 [THz] =      17.625522 [cm-1]
     freq (    4) =       1.868711 [THz] =      62.333483 [cm-1]
     freq (    5) =       1.986730 [THz] =      66.270192 [cm-1]
     freq (    6) =       2.772153 [THz] =      92.469080 [cm-1]
     freq (    7) =       3.799149 [THz] =     126.725968 [cm-1]
     freq (    8) =       3.878369 [THz] =     129.368450 [cm-1]
     freq (    9) =       3.993328 [THz] =     133.203070 [cm-1]
     freq (   10) =       4.159553 [THz] =     138.747760 [cm-1]
     freq (   11) =       5.555819 [THz] =     185.322175 [cm-1]
     freq (   12) =       5.607288 [THz] =     187.039007 [cm-1]
     freq (   13) =       6.167329 [THz] =     205.719952 [cm-1]
     freq (   14) =       6.970420 [THz] =     232.508179 [cm-1]
     freq (   15) =       7.346555 [THz] =     245.054686 [cm-1]
     freq (   16) =       7.919404 [THz] =     264.162895 [cm-1]
     freq (   17) =       8.368396 [THz] =     279.139628 [cm-1]
     freq (   18) =       8.383165 [THz] =     279.632280 [cm-1]
     freq (   19) =       8.415076 [THz] =     280.696726 [cm-1]
     freq (   20) =       8.559903 [THz] =     285.527638 [cm-1]
     freq (   21) =       8.807162 [THz] =     293.775318 [cm-1]
     freq (   22) =       8.960719 [THz] =     298.897417 [cm-1]
     freq (   23) =       9.766948 [THz] =     325.790317 [cm-1]
     freq (   24) =      10.144476 [THz] =     338.383283 [cm-1]
     freq (   25) =      10.646688 [THz] =     355.135301 [cm-1]
     freq (   26) =      11.873263 [THz] =     396.049406 [cm-1]
     freq (   27) =      11.900795 [THz] =     396.967779 [cm-1]
     freq (   28) =      13.446856 [THz] =     448.538820 [cm-1]
     freq (   29) =      13.564705 [THz] =     452.469843 [cm-1]
     freq (   30) =      13.678880 [THz] =     456.278331 [cm-1]
     freq (   31) =      13.956316 [THz] =     465.532590 [cm-1]
     freq (   32) =      14.126533 [THz] =     471.210421 [cm-1]
     freq (   33) =      15.454298 [THz] =     515.499900 [cm-1]
     freq (   34) =      17.778483 [THz] =     593.026352 [cm-1]
     freq (   35) =      19.731769 [THz] =     658.180973 [cm-1]
     freq (   36) =      19.736049 [THz] =     658.323724 [cm-1]
     freq (   37) =      22.098193 [THz] =     737.116386 [cm-1]
     freq (   38) =      26.940834 [THz] =     898.649491 [cm-1]
     freq (   39) =      29.862867 [THz] =     996.118007 [cm-1]
     freq (   40) =      30.022839 [THz] =    1001.454117 [cm-1]
     freq (   41) =      30.411863 [THz] =    1014.430566 [cm-1]
     freq (   42) =      30.541789 [THz] =    1018.764418 [cm-1]

     Mode symmetry, D_2h (mmm)  point group:

     freq (   1-   1) =        -13.9  [cm-1]   --> B_1u            I
     freq (   2-   2) =         -5.1  [cm-1]   --> B_2u            I
     freq (   3-   3) =         17.6  [cm-1]   --> B_3u            I
     freq (   4-   4) =         62.3  [cm-1]   --> B_1u            I
     freq (   5-   5) =         66.3  [cm-1]   --> A_u
     freq (   6-   6) =         92.5  [cm-1]   --> A_g             R
     freq (   7-   7) =        126.7  [cm-1]   --> B_3u            I
     freq (   8-   8) =        129.4  [cm-1]   --> B_2g            R
     freq (   9-   9) =        133.2  [cm-1]   --> B_3g            R
     freq (  10-  10) =        138.7  [cm-1]   --> B_1g            R
     freq (  11-  11) =        185.3  [cm-1]   --> A_g             R
     freq (  12-  12) =        187.0  [cm-1]   --> B_2g            R
     freq (  13-  13) =        205.7  [cm-1]   --> B_2u            I
     freq (  14-  14) =        232.5  [cm-1]   --> B_1g            R
     freq (  15-  15) =        245.1  [cm-1]   --> B_1u            I
     freq (  16-  16) =        264.2  [cm-1]   --> A_u
     freq (  17-  17) =        279.1  [cm-1]   --> B_3g            R
     freq (  18-  18) =        279.6  [cm-1]   --> B_3u            I
     freq (  19-  19) =        280.7  [cm-1]   --> B_2u            I
     freq (  20-  20) =        285.5  [cm-1]   --> B_1g            R
     freq (  21-  21) =        293.8  [cm-1]   --> A_g             R
     freq (  22-  22) =        298.9  [cm-1]   --> B_2g            R
     freq (  23-  23) =        325.8  [cm-1]   --> B_1u            I
     freq (  24-  24) =        338.4  [cm-1]   --> B_2g            R
     freq (  25-  25) =        355.1  [cm-1]   --> B_3u            I
     freq (  26-  26) =        396.0  [cm-1]   --> B_1u            I
     freq (  27-  27) =        397.0  [cm-1]   --> A_g             R
     freq (  28-  28) =        448.5  [cm-1]   --> A_u
     freq (  29-  29) =        452.5  [cm-1]   --> A_g             R
     freq (  30-  30) =        456.3  [cm-1]   --> B_2u            I
     freq (  31-  31) =        465.5  [cm-1]   --> B_3u            I
     freq (  32-  32) =        471.2  [cm-1]   --> B_2g            R
     freq (  33-  33) =        515.5  [cm-1]   --> A_g             R
     freq (  34-  34) =        593.0  [cm-1]   --> B_3u            I
     freq (  35-  35) =        658.2  [cm-1]   --> B_3g            R
     freq (  36-  36) =        658.3  [cm-1]   --> B_1g            R
     freq (  37-  37) =        737.1  [cm-1]   --> B_1u            I
     freq (  38-  38) =        898.6  [cm-1]   --> B_2g            R
     freq (  39-  39) =        996.1  [cm-1]   --> B_1u            I
     freq (  40-  40) =       1001.5  [cm-1]   --> B_3u            I
     freq (  41-  41) =       1014.4  [cm-1]   --> B_2g            R
     freq (  42-  42) =       1018.8  [cm-1]   --> A_g             R

     INITIALIZATION:

     DIELECTRIC CONSTANT AND EFFECTIVE CHARGES:

     RAMAN COEFFICIENTS, THIRD-ORDER CHI:

     DYNAMICAL MATRIX:

      General routines

   This run was terminated on:  20:18:44  13Oct2024

   JOB DONE.