     Program PWSCF v.6.7MaX starts on 13Oct2024 at 19:17:36

     R & G space division:  proc/nbgrp/npool/nimage =      32
     Reading input from v2o5.scf.in

     Current dimensions of program PWSCF are:
     Max number of different atomic species (ntypx) = 10
     Max number of k-points (npk) =  40000
     Max angular momentum in pseudopotentials (lmaxx) =  3
     Message from routine read_pp_mesh:
     mesh size missing, using the one in header
     Message from routine read_pp_mesh:
     mesh size missing, using the one in header

     IMPORTANT: XC functional enforced from input :
     Exchange-correlation= VDW-DF
                           (   1   4   4   0   1   0   0)
     Any further DFT definition will be discarded
     Please, verify this is what you really want

     Subspace diagonalization in iterative solution of the eigenvalue problem:
     a serial algorithm will be used

     bravais-lattice index     =            8
     lattice parameter (alat)  =       6.7655  a.u.
     unit-cell volume          =    1321.4657 (a.u.)^3
     number of atoms/cell      =           14
     number of atomic types    =            2
     number of electrons       =       112.00
     number of Kohn-Sham states=           56
     kinetic-energy cutoff     =      80.0000  Ry
     charge density cutoff     =     800.0000  Ry
     scf convergence threshold =      1.0E-12
     mixing beta               =       0.7000
     number of iterations used =            8  plain     mixing
     Exchange-correlation= VDW-DF
                           (   1   4   4   0   1   0   0)

     celldm(1)=   6.765538  celldm(2)=   1.309785  celldm(3)=   3.257984
     celldm(4)=   0.000000  celldm(5)=   0.000000  celldm(6)=   0.000000

     crystal axes: (cart. coord. in units of alat)
               a(1) = (   1.000000   0.000000   0.000000 )
               a(2) = (   0.000000   1.309785   0.000000 )
               a(3) = (   0.000000   0.000000   3.257984 )

     reciprocal axes: (cart. coord. in units 2 pi/alat)
               b(1) = (  1.000000  0.000000  0.000000 )
               b(2) = (  0.000000  0.763484  0.000000 )
               b(3) = (  0.000000  0.000000  0.306938 )

     PseudoPot. # 1 for V  read from file:
     /home/mpicuntureo/pseudos/v.nc.upf
     MD5 check sum: 40fb93c06b4f9d8c28c5ccd071294a04
     Pseudo is Norm-conserving + core correction, Zval = 13.0
     Generated using ONCVPSP code by D. R. Hamann
     Using radial grid of 1536 points,  6 beta functions with:
                l(1) =   0
                l(2) =   0
                l(3) =   1
                l(4) =   1
                l(5) =   2
                l(6) =   2

     PseudoPot. # 2 for O  read from file:
     /home/mpicuntureo/pseudos/o.nc.upf
     MD5 check sum: 3e3f909f7470e8921608ab6b1f57bbae
     Pseudo is Norm-conserving + core correction, Zval =  6.0
     Generated using ONCVPSP code by D. R. Hamann
     Using radial grid of  936 points,  5 beta functions with:
                l(1) =   0
                l(2) =   0
                l(3) =   1
                l(4) =   1
                l(5) =   2

     atomic species   valence    mass     pseudopotential
        V             13.00    50.94150     V ( 1.00)
        O              6.00    15.99940     O ( 1.00)

      8 Sym. Ops., with inversion, found ( 4 have fractional translation)

   Cartesian axes

     site n.     atom                  positions (alat units)
         1           V   tau(   1) = (   0.0000000   0.5100523   2.1098572  )
         2           V   tau(   2) = (   0.5000000   0.7997327   2.7771189  )
         3           V   tau(   3) = (   0.5000000   0.7997327   0.4808652  )
         4           V   tau(   4) = (   0.0000000   0.5100523   1.1481268  )
         5           O   tau(   5) = (   0.5000000   0.6477797   2.2193486  )
         6           O   tau(   6) = (   0.0000000   0.6620053   2.6676275  )
         7           O   tau(   7) = (   0.0000000   0.6620053   0.5903565  )
         8           O   tau(   8) = (   0.5000000   0.6477797   1.0386355  )
         9           O   tau(   9) = (   0.0000000   0.0656124   1.1635860  )
        10           O   tau(  10) = (   0.5000000   1.2441726   0.4654061  )
        11           O   tau(  11) = (   0.5000000   1.2441726   2.7925780  )
        12           O   tau(  12) = (   0.5000000   0.6538202   0.0000000  )
        13           O   tau(  13) = (   0.0000000   0.6559648   1.6289920  )
        14           O   tau(  14) = (   0.0000000   0.0656124   2.0943981  )

     number of k points=     4
                       cart. coord. in units 2pi/alat
        k(    1) = (   0.0000000   0.0000000   0.0000000), wk =   0.2222222
        k(    2) = (   0.0000000   0.2544947   0.0000000), wk =   0.4444444
        k(    3) = (   0.3333333   0.0000000   0.0000000), wk =   0.4444444
        k(    4) = (   0.3333333   0.2544947   0.0000000), wk =   0.8888889

     Initial potential from superposition of free atoms

     starting charge  111.99579, renormalised to  112.00000

     %%%%%%%%%%%%%%%%%%%%%%%%%%%%%%%%%%%%%%%%%%%%%%%%%%%%%%%%%%%%%%%%%%%%%%%%
     %                                                                      %
     % You are using vdW-DF, which was implemented by the Thonhauser group. %
     % Please cite the following two papers that made this development      %
     % possible and the two reviews that describe the various versions:     %
     %                                                                      %
     %   T. Thonhauser et al., PRL 115, 136402 (2015).                      %
     %   T. Thonhauser et al., PRB 76, 125112 (2007).                       %
     %   K. Berland et al., Rep. Prog. Phys. 78, 066501 (2015).             %
     %   D.C. Langreth et al., J. Phys.: Condens. Matter 21, 084203 (2009). %
     %                                                                      %
     %                                                                      %
     % If you are calculating the stress with vdW-DF, please also cite:     %
     %                                                                      %
     %   R. Sabatini et al., J. Phys.: Condens. Matter 24, 424209 (2012).   %
     %                                                                      %
     %%%%%%%%%%%%%%%%%%%%%%%%%%%%%%%%%%%%%%%%%%%%%%%%%%%%%%%%%%%%%%%%%%%%%%%%

     Starting wfcs are   80 randomized atomic wfcs

     Self-consistent Calculation

     iteration #  1     ecut=    80.00 Ry     beta= 0.70
     Davidson diagonalization with overlap
     ethr =  1.00E-02,  avg # of iterations =  2.0

     total energy              =    -920.59224743 Ry
     estimated scf accuracy    <       8.86245873 Ry

[...]

     total energy              =    -926.01473093 Ry
     estimated scf accuracy    <          1.6E-12 Ry

     iteration # 58     ecut=    80.00 Ry     beta= 0.70
     Davidson diagonalization with overlap
     ethr =  1.00E-13,  avg # of iterations =  1.0

     End of self-consistent calculation

          k = 0.0000 0.0000 0.0000 ( 15985 PWs)   bands (ev):

   -61.0340 -61.0322 -61.0249 -61.0232 -35.0111 -35.0089 -35.0015 -34.9970
   -34.9285 -34.8814 -34.8636 -34.8337 -34.8315 -34.8182 -34.8047 -34.8025
   -14.2466 -14.1330 -13.2611 -13.1184 -13.0488 -13.0414 -12.6911 -12.6851
   -12.5572 -12.5516  -1.1004  -1.0897  -1.0188  -0.9126  -0.8124  -0.4073
     0.2416   0.3325   0.5118   0.5934   0.7283   0.7707   0.8879   0.9362
     0.9952   1.0224   1.2915   1.3294   1.4248   1.4807   1.5858   1.5993
     1.7942   2.0288   2.1601   2.1886   2.2985   2.4793   2.4800   2.5758

[...]

          k = 0.3333 0.2545 0.0000 ( 15931 PWs)   bands (ev):

   -61.0303 -61.0285 -61.0258 -61.0240 -35.0065 -35.0044 -35.0011 -34.9977
   -34.9251 -34.9020 -34.8886 -34.8804 -34.8432 -34.8372 -34.8242 -34.8164
   -13.6809 -13.5654 -13.1390 -13.0115 -12.9998 -12.9865 -12.6439 -12.6236
   -12.5711 -12.5480  -1.5595  -1.4869  -0.8525  -0.8160  -0.7901  -0.4496
    -0.4043  -0.2873  -0.1832  -0.0178   0.0504   0.1961   0.5441   0.5867
     0.6542   0.7350   0.8230   0.9170   0.9918   1.4400   1.6709   1.8421
     2.0560   2.1251   2.4391   2.6607   2.6719   2.8040   2.8910   2.9054

     highest occupied level (ev):     2.9054

!    total energy              =    -926.01473093 Ry
     estimated scf accuracy    <          8.0E-13 Ry

     The total energy is the sum of the following terms:
     one-electron contribution =    -627.70040431 Ry
     hartree contribution      =     350.59489183 Ry
     xc contribution           =    -178.13615805 Ry
     ewald contribution        =    -470.77306039 Ry

     convergence has been achieved in  58 iterations

     Writing output data file outdir/v2o5.save/

     General routines

     Parallel routines

   This run was terminated on:  19:18:23  13Oct2024

   JOB DONE.