     Program PHONON v.6.7MaX starts on 13Oct2024 at 15:27:35

     R & G space division:  proc/nbgrp/npool/nimage =      32
     Reading input from ph.in
      Title line not specified: using 'default'.

     Reading xml data from directory:

     outdir/v2o5.save/
     Message from routine read_pp_mesh:
     mesh size missing, using the one in header
     Message from routine read_pp_mesh:
     mesh size missing, using the one in header

     IMPORTANT: XC functional enforced from input :
     Exchange-correlation= PBE
                           (   1   4   3   4   0   0   0)
     Any further DFT definition will be discarded
     Please, verify this is what you really want

     Reading collected, re-writing distributed wavefunctions

     Calculation of q =    0.0000000   0.0000000   0.0000000

     default

     bravais-lattice index     =            8
     lattice parameter (alat)  =       6.6827  a.u.
     unit-cell volume          =    1233.7754 (a.u.)^3
     number of atoms/cell      =           14
     number of atomic types    =            2
     kinetic-energy cut-off    =      80.0000  Ry
     charge density cut-off    =     800.0000  Ry
     convergence threshold     =      1.0E-14
     beta                      =       0.5000
     number of iterations used =            4
     Exchange-correlation= PBE
                           (   1   4   3   4   0   0   0)

     celldm(1)=    6.68270  celldm(2)=    1.26392  celldm(3)=    3.27085
     celldm(4)=    0.00000  celldm(5)=    0.00000  celldm(6)=    0.00000

     crystal axes: (cart. coord. in units of alat)
               a(1) = (  1.0000  0.0000  0.0000 )
               a(2) = (  0.0000  1.2639  0.0000 )
               a(3) = (  0.0000  0.0000  3.2708 )

     reciprocal axes: (cart. coord. in units 2 pi/alat)
               b(1) = (  1.0000  0.0000  0.0000 )
               b(2) = (  0.0000  0.7912  0.0000 )
               b(3) = (  0.0000  0.0000  0.3057 )

     Atoms inside the unit cell:

     Cartesian axes

     site n.  atom      mass           positions (alat units)
        1     V   50.9415   tau(    1) = (    0.00000    0.48393    2.11974  )
        2     V   50.9415   tau(    2) = (    0.50000    0.77999    2.78653  )
        3     V   50.9415   tau(    3) = (    0.50000    0.77999    0.48431  )
        4     V   50.9415   tau(    4) = (    0.00000    0.48393    1.15111  )
        5     O   15.9994   tau(    5) = (    0.50000    0.62220    2.22848  )
        6     O   15.9994   tau(    6) = (    0.00000    0.64173    2.67779  )
        7     O   15.9994   tau(    7) = (    0.00000    0.64173    0.59305  )
        8     O   15.9994   tau(    8) = (    0.50000    0.62220    1.04237  )
        9     O   15.9994   tau(    9) = (    0.00000    0.03657    1.15868  )
       10     O   15.9994   tau(   10) = (    0.50000    1.22735    0.47674  )
       11     O   15.9994   tau(   11) = (    0.50000    1.22735    2.79410  )
       12     O   15.9994   tau(   12) = (    0.50000    0.64338    0.00000  )
       13     O   15.9994   tau(   13) = (    0.00000    0.62054    1.63542  )
       14     O   15.9994   tau(   14) = (    0.00000    0.03657    2.11217  )

     Computing dynamical matrix for
                    q = (   0.0000000   0.0000000   0.0000000 )

      9 Sym.Ops. (with q -> -q+G )

     G cutoff =  904.9698  (  14728 G-vectors)     FFT grid: ( 64, 80,200)
     G cutoff =  361.9879  (   3729 G-vectors)  smooth grid: ( 40, 50,128)
     number of k points=     4
                       cart. coord. in units 2pi/alat
        k(    1) = (   0.0000000   0.0000000   0.0000000), wk =   0.2222222
        k(    2) = (   0.0000000   0.2637294   0.0000000), wk =   0.4444444
        k(    3) = (   0.3333333   0.0000000   0.0000000), wk =   0.4444444
        k(    4) = (   0.3333333   0.2637294   0.0000000), wk =   0.8888889

     PseudoPot. # 1 for V  read from file:
     /home/mpicuntureo/pseudos/v.nc.upf
     MD5 check sum: 40fb93c06b4f9d8c28c5ccd071294a04
     Pseudo is Norm-conserving + core correction, Zval = 13.0
     Generated using ONCVPSP code by D. R. Hamann
     Using radial grid of 1536 points,  6 beta functions with:
                l(1) =   0
                l(2) =   0
                l(3) =   1
                l(4) =   1
                l(5) =   2
                l(6) =   2

     PseudoPot. # 2 for O  read from file:
     /home/mpicuntureo/pseudos/o.nc.upf
     MD5 check sum: 3e3f909f7470e8921608ab6b1f57bbae
     Pseudo is Norm-conserving + core correction, Zval =  6.0
     Generated using ONCVPSP code by D. R. Hamann
     Using radial grid of  936 points,  5 beta functions with:
                l(1) =   0
                l(2) =   0
                l(3) =   1
                l(4) =   1
                l(5) =   2

     Mode symmetry, D_2h (mmm)  point group:

     Electric field:
     Dielectric constant
     Born effective charges as d Force / d E
     Raman tensor

     Atomic displacements:
     There are   42 irreducible representations

     Representation     1      1 modes -  To be done

[...]

     Representation    42      1 modes -  To be done

     Alpha used in Ewald sum =   2.8000

     Parameters for Dispersion (Grimme-D2) Correction:
       atom      VdW radius       C_6

        V          2.952        374.666
        O          2.536         24.284

     Calculating the D2 contribution to the dynamical matrix.
     D2 energy =       -0.13056891 Ry
     Done.

     Electric Fields Calculation

      thresh= 1.000E-02 alpha_mix =  0.500 |ddv_scf|^2 =  2.576E-07

[...]

     End of electric fields calculation

          Dielectric constant in cartesian axis

          (       5.827607825       0.000000000       0.000000000 )
          (       0.000000000       3.674791290       0.000000000 )
          (       0.000000000       0.000000000       6.600858760 )

          Effective charges (d Force / dE) in cartesian axis

           atom      1   V
      Ex  (        6.31775        0.00000       -0.00000 )
      Ey  (        0.00000        3.16406       -0.06367 )
      Ez  (        0.00000       -0.48783        6.72022 )
           atom      2   V
      Ex  (        6.31775        0.00000        0.00000 )
      Ey  (        0.00000        3.16406       -0.06367 )
      Ez  (        0.00000       -0.48783        6.72022 )
           atom      3   V
      Ex  (        6.31775        0.00000        0.00000 )
      Ey  (        0.00000        3.16406        0.06367 )
      Ez  (        0.00000        0.48783        6.72022 )
           atom      4   V
      Ex  (        6.31775        0.00000        0.00000 )
      Ey  (        0.00000        3.16406        0.06367 )
      Ez  (        0.00000        0.48783        6.72022 )
           atom      5   O
      Ex  (       -5.24820        0.00000        0.00000 )
      Ey  (        0.00000       -0.77610       -0.30565 )
      Ez  (        0.00000       -0.81491       -2.68145 )
           atom      6   O
      Ex  (       -5.24820        0.00000        0.00000 )
      Ey  (        0.00000       -0.77610       -0.30565 )
      Ez  (       -0.00000       -0.81491       -2.68145 )
           atom      7   O
      Ex  (       -5.24820        0.00000       -0.00000 )
      Ey  (        0.00000       -0.77610        0.30565 )
      Ez  (       -0.00000        0.81491       -2.68145 )
           atom      8   O
      Ex  (       -5.24820        0.00000        0.00000 )
      Ey  (        0.00000       -0.77610        0.30565 )
      Ez  (        0.00000        0.81491       -2.68145 )
           atom      9   O
      Ex  (       -0.54498        0.00000       -0.00000 )
      Ey  (        0.00000       -2.08318       -0.09697 )
      Ez  (        0.00000       -0.23630       -0.51930 )
           atom     10   O
      Ex  (       -0.54498       -0.00000        0.00000 )
      Ey  (        0.00000       -2.08318       -0.09697 )
      Ez  (        0.00000       -0.23630       -0.51930 )
           atom     11   O
      Ex  (       -0.54498        0.00000        0.00000 )
      Ey  (        0.00000       -2.08318        0.09697 )
      Ez  (        0.00000        0.23630       -0.51930 )
           atom     12   O
      Ex  (       -1.01823        0.00000        0.00000 )
      Ey  (       -0.00000       -0.66882       -0.00000 )
      Ez  (        0.00000        0.00000       -7.16212 )
           atom     13   O
      Ex  (       -1.01823        0.00000       -0.00000 )
      Ey  (       -0.00000       -0.66882        0.00000 )
      Ez  (       -0.00000        0.00000       -7.16212 )
           atom     14   O
      Ex  (       -0.54498       -0.00000        0.00000 )
      Ey  (        0.00000       -2.08318        0.09697 )
      Ez  (        0.00000        0.23630       -0.51930 )

     Calling punch_plot_e
     Writing on file  drho

     Computing Pc [DH,Drho] |psi>

     Derivative coefficient:  0.001000    Threshold: 1.00E-12
     Non-scf  u_k: avg # of iterations = 28.8
     Non-scf Du_k: avg # of iterations = 55.9

          Dielectric constant from finite-differences

[...]

     Computing Second order response

      iter #   1   av.it.:  18.0
      thresh= 1.000E-02 alpha_mix =  0.500 |ddv_scf|^2 =  2.739E-03

[...]

      iter #  22   av.it.:  17.5
      thresh= 1.686E-08 alpha_mix =  0.500 |ddv_scf|^2 =  4.834E-15

          Raman tensor (au^-1) in cartesian axis

           atom      1
          (       0.000000000       0.577201359       1.100995208 )
          (       0.577201359       0.000000000      -0.000000000 )
          (       1.100995208      -0.000000000      -0.000000000 )

[...]

           atom     14
          (       0.000000000      -0.189894962       0.013996027 )
          (      -0.189894962       0.000000000       0.000000000 )
          (       0.013996027       0.000000000       0.000000000 )

[...]

     Raman tensor (A^2)

     atom #    1    pol.  1
      0.000000000000E+00      0.158692300160E+02      0.302701057808E+02
      0.158692300160E+02      0.000000000000E+00     -0.461464611732E-16
      0.302701057808E+02     -0.461464611732E-16     -0.713277559716E-16
     atom #    1    pol.  2
      0.183488684362E+02      0.000000000000E+00     -0.922929223465E-16
      0.000000000000E+00      0.117841039667E+02     -0.139826736375E+01
     -0.922929223465E-16     -0.139826736375E+01      0.132272608609E+02
     atom #    1    pol.  3
     -0.103983592666E+02      0.000000000000E+00      0.000000000000E+00
      0.000000000000E+00      0.173207813270E+01      0.185315447181E+01
      0.000000000000E+00      0.185315447181E+01      0.173984930884E+02
     atom #    2    pol.  1
      0.000000000000E+00     -0.158692300160E+02     -0.302701057808E+02
     -0.158692300160E+02      0.000000000000E+00      0.461464611732E-16
     -0.302701057808E+02      0.461464611732E-16      0.713277559716E-16
     atom #    2    pol.  2
     -0.183488684362E+02      0.000000000000E+00      0.000000000000E+00
      0.000000000000E+00     -0.117841039667E+02      0.139826736375E+01
      0.000000000000E+00      0.139826736375E+01     -0.132272608609E+02
     atom #    2    pol.  3
[...]
     -0.416052625758E+01      0.597101605064E-16      0.000000000000E+00
      0.597101605064E-16      0.195164203940E+01      0.223932277145E+01
      0.000000000000E+00      0.223932277145E+01      0.588398624521E+01
     atom #    5    pol.  3
     -0.100404002691E+02      0.000000000000E+00     -0.713277559716E-16
      0.000000000000E+00     -0.307630175551E+00      0.517001378301E+01
     -0.713277559716E-16      0.517001378301E+01     -0.301905078076E+01
     atom #    6    pol.  1
      0.000000000000E+00      0.100362663709E+02      0.203423963691E+02
      0.100362663709E+02      0.000000000000E+00      0.000000000000E+00
      0.203423963691E+02      0.000000000000E+00      0.000000000000E+00
     atom #    6    pol.  2
      0.416052625758E+01      0.000000000000E+00      0.000000000000E+00
      0.000000000000E+00     -0.195164203940E+01     -0.223932277145E+01
      0.000000000000E+00     -0.223932277145E+01     -0.588398624521E+01
     atom #    6    pol.  3
      0.100404002691E+02     -0.115366152933E-16      0.000000000000E+00
     -0.115366152933E-16      0.307630175551E+00     -0.517001378301E+01
      0.000000000000E+00     -0.517001378301E+01      0.301905078076E+01
     atom #    7    pol.  1
      0.000000000000E+00      0.100362663709E+02     -0.203423963691E+02
      0.100362663709E+02      0.597101605064E-16      0.000000000000E+00
     -0.203423963691E+02      0.000000000000E+00      0.000000000000E+00
     atom #    7    pol.  2
      0.416052625758E+01     -0.597101605064E-16      0.000000000000E+00
     -0.597101605064E-16     -0.195164203940E+01      0.223932277145E+01
      0.000000000000E+00      0.223932277145E+01     -0.588398624521E+01
     atom #    7    pol.  3
     -0.100404002691E+02      0.000000000000E+00      0.713277559716E-16
      0.000000000000E+00     -0.307630175551E+00     -0.517001378301E+01
      0.713277559716E-16     -0.517001378301E+01     -0.301905078076E+01
     atom #    8    pol.  1
      0.000000000000E+00     -0.100362663709E+02      0.203423963691E+02
     -0.100362663709E+02      0.000000000000E+00      0.000000000000E+00
      0.203423963691E+02      0.000000000000E+00      0.000000000000E+00
     atom #    8    pol.  2
     -0.416052625758E+01      0.000000000000E+00      0.000000000000E+00
      0.000000000000E+00      0.195164203940E+01     -0.223932277145E+01
      0.000000000000E+00     -0.223932277145E+01      0.588398624521E+01
     atom #    8    pol.  3
      0.100404002691E+02     -0.115366152933E-16      0.000000000000E+00
     -0.115366152933E-16      0.307630175551E+00      0.517001378301E+01
      0.000000000000E+00      0.517001378301E+01      0.301905078076E+01
     atom #    9    pol.  1
      0.000000000000E+00     -0.522085887236E+01     -0.384798416362E+00
     -0.522085887236E+01      0.119420321013E-15      0.230732305866E-16
     -0.384798416362E+00      0.230732305866E-16      0.000000000000E+00
     atom #    9    pol.  2
     -0.178785517728E+02      0.119420321013E-15      0.000000000000E+00
      0.119420321013E-15     -0.202140025607E+02     -0.143610870485E+01
      0.000000000000E+00     -0.143610870485E+01     -0.161687991783E+02
     atom #    9    pol.  3
     -0.464855998050E+00      0.000000000000E+00      0.000000000000E+00
      0.000000000000E+00     -0.122903431910E+01     -0.431374356882E+01
      0.000000000000E+00     -0.431374356882E+01      0.262629391227E+01
     atom #   10    pol.  1
      0.000000000000E+00      0.522085887236E+01      0.384798416362E+00
      0.522085887236E+01     -0.119420321013E-15      0.000000000000E+00
      0.384798416362E+00      0.000000000000E+00      0.000000000000E+00
     atom #   10    pol.  2
      0.178785517728E+02      0.000000000000E+00      0.000000000000E+00
      0.000000000000E+00      0.202140025607E+02      0.143610870485E+01
      0.000000000000E+00      0.143610870485E+01      0.161687991783E+02
     atom #   10    pol.  3
      0.464855998050E+00     -0.922929223465E-16      0.000000000000E+00
     -0.922929223465E-16      0.122903431910E+01      0.431374356882E+01
      0.000000000000E+00      0.431374356882E+01     -0.262629391227E+01
     atom #   11    pol.  1
      0.000000000000E+00      0.522085887236E+01     -0.384798416362E+00
      0.522085887236E+01     -0.119420321013E-15      0.230732305866E-16
     -0.384798416362E+00      0.230732305866E-16      0.000000000000E+00
     atom #   11    pol.  2
      0.178785517728E+02     -0.119420321013E-15      0.000000000000E+00
     -0.119420321013E-15      0.202140025607E+02     -0.143610870485E+01
      0.000000000000E+00     -0.143610870485E+01      0.161687991783E+02
     atom #   11    pol.  3
     -0.464855998050E+00      0.000000000000E+00      0.000000000000E+00
      0.000000000000E+00     -0.122903431910E+01      0.431374356882E+01
      0.000000000000E+00      0.431374356882E+01      0.262629391227E+01
     atom #   12    pol.  1
      0.000000000000E+00     -0.824497083482E+00      0.444988448315E-21
     -0.824497083482E+00      0.000000000000E+00     -0.440086948140E-22
      0.444988448315E-21     -0.440086948140E-22     -0.713277559716E-16
     atom #   12    pol.  2
     -0.176717110726E+01      0.000000000000E+00     -0.176034779256E-21
      0.000000000000E+00     -0.349670502825E+01      0.000000000000E+00
     -0.176034779256E-21      0.000000000000E+00     -0.423081386563E+01
     atom #   12    pol.  3
      0.000000000000E+00      0.000000000000E+00      0.142655511943E-15
      0.000000000000E+00      0.222842591982E-20     -0.158243050929E+01
      0.142655511943E-15     -0.158243050929E+01      0.000000000000E+00
     atom #   13    pol.  1
      0.000000000000E+00      0.824497083482E+00     -0.111247112079E-21
      0.824497083482E+00      0.000000000000E+00      0.000000000000E+00
     -0.111247112079E-21      0.000000000000E+00      0.713277559716E-16
     atom #   13    pol.  2
      0.176717110726E+01      0.000000000000E+00      0.330065211105E-22
      0.000000000000E+00      0.349670502825E+01      0.000000000000E+00
      0.330065211105E-22      0.000000000000E+00      0.423081386563E+01
     atom #   13    pol.  3
      0.000000000000E+00      0.000000000000E+00     -0.142655511943E-15
      0.000000000000E+00      0.334263887973E-20      0.158243050929E+01
     -0.142655511943E-15      0.158243050929E+01      0.000000000000E+00
     atom #   14    pol.  1
      0.000000000000E+00     -0.522085887236E+01      0.384798416362E+00
     -0.522085887236E+01      0.119420321013E-15      0.000000000000E+00
      0.384798416362E+00      0.000000000000E+00      0.000000000000E+00
     atom #   14    pol.  2
     -0.178785517728E+02      0.000000000000E+00      0.000000000000E+00
      0.000000000000E+00     -0.202140025607E+02      0.143610870485E+01
      0.000000000000E+00      0.143610870485E+01     -0.161687991783E+02
     atom #   14    pol.  3
      0.464855998050E+00     -0.922929223465E-16      0.000000000000E+00
     -0.922929223465E-16      0.122903431910E+01     -0.431374356882E+01
      0.000000000000E+00     -0.431374356882E+01     -0.262629391227E+01

     Representation #   1 mode #   1

     Self-consistent Calculation

[...]

     End of self-consistent calculation

     Convergence has been achieved

[...]

     Representation #  42 mode #  42

     Self-consistent Calculation

[...]

      thresh= 1.063E-08 alpha_mix =  0.500 |ddv_scf|^2 =  1.730E-15

     End of self-consistent calculation

     Convergence has been achieved

     Number of q in the star =    1
     List of q in the star:
          1   0.000000000   0.000000000   0.000000000

          Dielectric constant in cartesian axis

          (       5.829049070       0.000000000       0.000000000 )
          (       0.000000000       3.678301389       0.000000000 )
          (       0.000000000       0.000000000       6.601671566 )

          Effective charges (d Force / dE) in cartesian axis

           atom      1   V
      Ex  (        6.31775        0.00000       -0.00000 )
      Ey  (        0.00000        3.16406       -0.06367 )
      Ez  (        0.00000       -0.48783        6.72022 )
           atom      2   V
      Ex  (        6.31775        0.00000        0.00000 )
      Ey  (        0.00000        3.16406       -0.06367 )
      Ez  (        0.00000       -0.48783        6.72022 )
           atom      3   V
      Ex  (        6.31775        0.00000        0.00000 )
      Ey  (        0.00000        3.16406        0.06367 )
      Ez  (        0.00000        0.48783        6.72022 )
           atom      4   V
      Ex  (        6.31775        0.00000        0.00000 )
      Ey  (        0.00000        3.16406        0.06367 )
      Ez  (        0.00000        0.48783        6.72022 )
           atom      5   O
      Ex  (       -5.24820        0.00000        0.00000 )
      Ey  (        0.00000       -0.77610       -0.30565 )
      Ez  (        0.00000       -0.81491       -2.68145 )
           atom      6   O
      Ex  (       -5.24820        0.00000        0.00000 )
      Ey  (        0.00000       -0.77610       -0.30565 )
      Ez  (       -0.00000       -0.81491       -2.68145 )
           atom      7   O
      Ex  (       -5.24820        0.00000       -0.00000 )
      Ey  (        0.00000       -0.77610        0.30565 )
      Ez  (       -0.00000        0.81491       -2.68145 )
           atom      8   O
      Ex  (       -5.24820        0.00000        0.00000 )
      Ey  (        0.00000       -0.77610        0.30565 )
      Ez  (        0.00000        0.81491       -2.68145 )
           atom      9   O
      Ex  (       -0.54498        0.00000       -0.00000 )
      Ey  (        0.00000       -2.08318       -0.09697 )
      Ez  (        0.00000       -0.23630       -0.51930 )
           atom     10   O
      Ex  (       -0.54498       -0.00000        0.00000 )
      Ey  (        0.00000       -2.08318       -0.09697 )
      Ez  (        0.00000       -0.23630       -0.51930 )
           atom     11   O
      Ex  (       -0.54498        0.00000        0.00000 )
      Ey  (        0.00000       -2.08318        0.09697 )
      Ez  (        0.00000        0.23630       -0.51930 )
           atom     12   O
      Ex  (       -1.01823        0.00000        0.00000 )
      Ey  (       -0.00000       -0.66882       -0.00000 )
      Ez  (        0.00000        0.00000       -7.16212 )
           atom     13   O
      Ex  (       -1.01823        0.00000       -0.00000 )
      Ey  (       -0.00000       -0.66882        0.00000 )
      Ez  (       -0.00000        0.00000       -7.16212 )
           atom     14   O
      Ex  (       -0.54498       -0.00000        0.00000 )
      Ey  (        0.00000       -2.08318        0.09697 )
      Ez  (        0.00000        0.23630       -0.51930 )

     Diagonalizing the dynamical matrix

     q = (    0.000000000   0.000000000   0.000000000 )

     freq (    1) =      -0.832905 [THz] =     -27.782711 [cm-1]
     freq (    2) =      -0.533872 [THz] =     -17.808038 [cm-1]
     freq (    3) =      -0.446540 [THz] =     -14.894976 [cm-1]
     freq (    4) =       1.911360 [THz] =      63.756107 [cm-1]
     freq (    5) =       2.148272 [THz] =      71.658641 [cm-1]
     freq (    6) =       2.937680 [THz] =      97.990462 [cm-1]
     freq (    7) =       4.017763 [THz] =     134.018156 [cm-1]
     freq (    8) =       4.077507 [THz] =     136.010982 [cm-1]
     freq (    9) =       4.371967 [THz] =     145.833119 [cm-1]
     freq (   10) =       4.538679 [THz] =     151.394025 [cm-1]
     freq (   11) =       5.644146 [THz] =     188.268439 [cm-1]
     freq (   12) =       5.844917 [THz] =     194.965437 [cm-1]
     freq (   13) =       6.246318 [THz] =     208.354739 [cm-1]
     freq (   14) =       6.913556 [THz] =     230.611421 [cm-1]
     freq (   15) =       7.671947 [THz] =     255.908611 [cm-1]
     freq (   16) =       8.037518 [THz] =     268.102744 [cm-1]
     freq (   17) =       8.453631 [THz] =     281.982791 [cm-1]
     freq (   18) =       8.555368 [THz] =     285.376375 [cm-1]
     freq (   19) =       8.712355 [THz] =     290.612875 [cm-1]
     freq (   20) =       8.730479 [THz] =     291.217449 [cm-1]
     freq (   21) =       9.100757 [THz] =     303.568562 [cm-1]
     freq (   22) =       9.258479 [THz] =     308.829603 [cm-1]
     freq (   23) =       9.975843 [THz] =     332.758299 [cm-1]
     freq (   24) =      10.523189 [THz] =     351.015788 [cm-1]
     freq (   25) =      10.621713 [THz] =     354.302213 [cm-1]
     freq (   26) =      12.019914 [THz] =     400.941169 [cm-1]
     freq (   27) =      12.218177 [THz] =     407.554504 [cm-1]
     freq (   28) =      13.895876 [THz] =     463.516517 [cm-1]
     freq (   29) =      14.118623 [THz] =     470.946567 [cm-1]
     freq (   30) =      14.317708 [THz] =     477.587318 [cm-1]
     freq (   31) =      14.618020 [THz] =     487.604654 [cm-1]
     freq (   32) =      14.794742 [THz] =     493.499476 [cm-1]
     freq (   33) =      15.794183 [THz] =     526.837250 [cm-1]
     freq (   34) =      18.273639 [THz] =     609.542982 [cm-1]
     freq (   35) =      20.570336 [THz] =     686.152536 [cm-1]
     freq (   36) =      20.573679 [THz] =     686.264058 [cm-1]
     freq (   37) =      23.216948 [THz] =     774.434036 [cm-1]
     freq (   38) =      28.238740 [THz] =     941.942987 [cm-1]
     freq (   39) =      30.359087 [THz] =    1012.670129 [cm-1]
     freq (   40) =      30.474681 [THz] =    1016.525956 [cm-1]
     freq (   41) =      30.939805 [THz] =    1032.040811 [cm-1]
     freq (   42) =      31.011556 [THz] =    1034.434151 [cm-1]

     Mode symmetry, D_2h (mmm)  point group:

     freq (   1-   1) =        -27.8  [cm-1]   --> B_3u            I
     freq (   2-   2) =        -17.8  [cm-1]   --> B_2u            I
     freq (   3-   3) =        -14.9  [cm-1]   --> B_1u            I
     freq (   4-   4) =         63.8  [cm-1]   --> A_u
     freq (   5-   5) =         71.7  [cm-1]   --> B_1u            I
     freq (   6-   6) =         98.0  [cm-1]   --> A_g             R
     freq (   7-   7) =        134.0  [cm-1]   --> B_3u            I
     freq (   8-   8) =        136.0  [cm-1]   --> B_2g            R
     freq (   9-   9) =        145.8  [cm-1]   --> B_3g            R
     freq (  10-  10) =        151.4  [cm-1]   --> B_1g            R
     freq (  11-  11) =        188.3  [cm-1]   --> A_g             R
     freq (  12-  12) =        195.0  [cm-1]   --> B_2g            R
     freq (  13-  13) =        208.4  [cm-1]   --> B_2u            I
     freq (  14-  14) =        230.6  [cm-1]   --> B_1g            R
     freq (  15-  15) =        255.9  [cm-1]   --> B_1u            I
     freq (  16-  16) =        268.1  [cm-1]   --> A_u
     freq (  17-  17) =        282.0  [cm-1]   --> B_2u            I
     freq (  18-  18) =        285.4  [cm-1]   --> B_3g            R
     freq (  19-  19) =        290.6  [cm-1]   --> B_3u            I
     freq (  20-  20) =        291.2  [cm-1]   --> B_1g            R
     freq (  21-  21) =        303.6  [cm-1]   --> A_g             R
     freq (  22-  22) =        308.8  [cm-1]   --> B_2g            R
     freq (  23-  23) =        332.8  [cm-1]   --> B_1u            I
     freq (  24-  24) =        351.0  [cm-1]   --> B_2g            R
     freq (  25-  25) =        354.3  [cm-1]   --> B_3u            I
     freq (  26-  26) =        400.9  [cm-1]   --> A_g             R
     freq (  27-  27) =        407.6  [cm-1]   --> B_1u            I
     freq (  28-  28) =        463.5  [cm-1]   --> A_g             R
     freq (  29-  29) =        470.9  [cm-1]   --> B_3u            I
     freq (  30-  30) =        477.6  [cm-1]   --> B_2g            R
     freq (  31-  31) =        487.6  [cm-1]   --> A_u
     freq (  32-  32) =        493.5  [cm-1]   --> B_2u            I
     freq (  33-  33) =        526.8  [cm-1]   --> A_g             R
     freq (  34-  34) =        609.5  [cm-1]   --> B_3u            I
     freq (  35-  35) =        686.2  [cm-1]   --> B_3g            R
     freq (  36-  36) =        686.3  [cm-1]   --> B_1g            R
     freq (  37-  37) =        774.4  [cm-1]   --> B_1u            I
     freq (  38-  38) =        941.9  [cm-1]   --> B_2g            R
     freq (  39-  39) =       1012.7  [cm-1]   --> B_1u            I
     freq (  40-  40) =       1016.5  [cm-1]   --> B_3u            I
     freq (  41-  41) =       1032.0  [cm-1]   --> B_2g            R
     freq (  42-  42) =       1034.4  [cm-1]   --> A_g             R

     INITIALIZATION:

     DIELECTRIC CONSTANT AND EFFECTIVE CHARGES:

     RAMAN COEFFICIENTS, THIRD-ORDER CHI:

     DYNAMICAL MATRIX:

      General routines

   This run was terminated on:  16:29: 3  13Oct2024

   JOB DONE.