     Program PWSCF v.6.4.1 starts on 13Oct2024 at  1:40:15

     R & G space division:  proc/nbgrp/npool/nimage =      32
     Reading input from v2o5.scf.in

     Current dimensions of program PWSCF are:
     Max number of different atomic species (ntypx) = 10
     Max number of k-points (npk) =  40000
     Max angular momentum in pseudopotentials (lmaxx) =  3

     Parameters for Dispersion (Grimme-D2) Correction:
       atom      VdW radius       C_6

        V          2.952        374.666
        O          2.536         24.284

     Subspace diagonalization in iterative solution of the eigenvalue problem:
     one sub-group per band group will be used

     bravais-lattice index     =            8
     lattice parameter (alat)  =       6.6827  a.u.
     unit-cell volume          =    1233.7754 (a.u.)^3
     number of atoms/cell      =           14
     number of atomic types    =            2
     number of electrons       =       112.00
     number of Kohn-Sham states=           56
     kinetic-energy cutoff     =      80.0000  Ry
     charge density cutoff     =     800.0000  Ry
     convergence threshold     =      1.0E-12
     mixing beta               =       0.7000
     number of iterations used =            8  plain     mixing
     Exchange-correlation      = PBE ( 1  4  3  4 0 0)

     celldm(1)=   6.682699  celldm(2)=   1.263922  celldm(3)=   3.270846
     celldm(4)=   0.000000  celldm(5)=   0.000000  celldm(6)=   0.000000

     crystal axes: (cart. coord. in units of alat)
               a(1) = (   1.000000   0.000000   0.000000 )
               a(2) = (   0.000000   1.263922   0.000000 )
               a(3) = (   0.000000   0.000000   3.270846 )

     reciprocal axes: (cart. coord. in units 2 pi/alat)
               b(1) = (  1.000000  0.000000  0.000000 )
               b(2) = (  0.000000  0.791188  0.000000 )
               b(3) = (  0.000000  0.000000  0.305731 )

     PseudoPot. # 1 for V  read from file:
     /home/mpicuntureo/pseudos/v.nc.upf
     MD5 check sum: 40fb93c06b4f9d8c28c5ccd071294a04
     Pseudo is Norm-conserving + core correction, Zval = 13.0
     Generated using ONCVPSP code by D. R. Hamann
     Using radial grid of 1536 points,  6 beta functions with:
                l(1) =   0
                l(2) =   0
                l(3) =   1
                l(4) =   1
                l(5) =   2
                l(6) =   2

     PseudoPot. # 2 for O  read from file:
     /home/mpicuntureo/pseudos/o.nc.upf
     MD5 check sum: 3e3f909f7470e8921608ab6b1f57bbae
     Pseudo is Norm-conserving + core correction, Zval =  6.0
     Generated using ONCVPSP code by D. R. Hamann
     Using radial grid of  936 points,  5 beta functions with:
                l(1) =   0
                l(2) =   0
                l(3) =   1
                l(4) =   1
                l(5) =   2

     atomic species   valence    mass     pseudopotential
        V             13.00    50.94150     V ( 1.00)
        O              6.00    15.99940     O ( 1.00)

      8 Sym. Ops., with inversion, found ( 4 have fractional translation)

   Cartesian axes

     site n.     atom                  positions (alat units)
         1           V   tau(   1) = (   0.0000000   0.4839317   2.1197364  )
         2           V   tau(   2) = (   0.5000000   0.7799903   2.7865326  )
         3           V   tau(   3) = (   0.5000000   0.7799903   0.4843134  )
         4           V   tau(   4) = (   0.0000000   0.4839317   1.1511096  )
         5           O   tau(   5) = (   0.5000000   0.6221956   2.2284774  )
         6           O   tau(   6) = (   0.0000000   0.6417264   2.6777915  )
         7           O   tau(   7) = (   0.0000000   0.6417264   0.5930544  )
         8           O   tau(   8) = (   0.5000000   0.6221956   1.0423686  )
         9           O   tau(   9) = (   0.0000000   0.0365675   1.1586802  )
        10           O   tau(  10) = (   0.5000000   1.2273545   0.4767428  )
        11           O   tau(  11) = (   0.5000000   1.2273545   2.7941032  )
        12           O   tau(  12) = (   0.5000000   0.6433804   0.0000000  )
        13           O   tau(  13) = (   0.0000000   0.6205416   1.6354230  )
        14           O   tau(  14) = (   0.0000000   0.0365675   2.1121657  )

     number of k points=     4
                       cart. coord. in units 2pi/alat
        k(    1) = (   0.0000000   0.0000000   0.0000000), wk =   0.2222222
        k(    2) = (   0.0000000   0.2637294   0.0000000), wk =   0.4444444
        k(    3) = (   0.3333333   0.0000000   0.0000000), wk =   0.4444444
        k(    4) = (   0.3333333   0.2637294   0.0000000), wk =   0.8888889

     Initial potential from superposition of free atoms

     starting charge  111.99579, renormalised to  112.00000
     Starting wfcs are   80 randomized atomic wfcs

     Self-consistent Calculation

     iteration #  1     ecut=    80.00 Ry     beta= 0.70
     Davidson diagonalization with overlap
     ethr =  1.00E-02,  avg # of iterations =  2.0

     total energy              =    -917.44788309 Ry
     Harris-Foulkes estimate   =    -923.62486528 Ry
     estimated scf accuracy    <       7.75366867 Ry

[...]

     total energy              =    -922.12634456 Ry
     Harris-Foulkes estimate   =    -922.12634456 Ry
     estimated scf accuracy    <          3.8E-12 Ry

     iteration # 26     ecut=    80.00 Ry     beta= 0.70
     Davidson diagonalization with overlap
     ethr =  1.00E-13,  avg # of iterations =  1.0

     End of self-consistent calculation

          k = 0.0000 0.0000 0.0000 ( 14925 PWs)   bands (ev):

   -59.9674 -59.9654 -59.9565 -59.9546 -34.0039 -34.0016 -33.9947 -33.9891
   -33.9096 -33.8562 -33.8298 -33.8001 -33.7976 -33.7789 -33.7658 -33.7633
   -13.5414 -13.4180 -12.4512 -12.3241 -12.2392 -12.1977 -11.8148 -11.8105
   -11.6526 -11.6325  -0.4177  -0.4046  -0.3587  -0.2486  -0.0701   0.3635
     1.0587   1.1072   1.3398   1.3438   1.5775   1.6154   1.8669   1.8684
     1.9065   2.0046   2.0814   2.0912   2.1904   2.2811   2.3764   2.5088
     2.5180   2.9086   3.0312   3.0583   3.1090   3.3269   3.3587   3.4227

[...]

          k = 0.3333 0.2637 0.0000 ( 14912 PWs)   bands (ev):

   -59.9629 -59.9609 -59.9575 -59.9555 -34.0000 -33.9975 -33.9951 -33.9907
   -33.9056 -33.8784 -33.8653 -33.8559 -33.8098 -33.8044 -33.7887 -33.7780
   -12.9001 -12.7749 -12.3071 -12.1802 -12.1570 -12.1323 -11.7406 -11.7210
   -11.6430 -11.6251  -0.9267  -0.8481  -0.1669  -0.1581  -0.0900   0.1611
     0.2640   0.4009   0.4484   0.6779   0.7354   0.9535   1.2980   1.3242
     1.4350   1.4742   1.5994   1.6935   1.8569   2.2992   2.5227   2.7173
     2.9884   2.9956   3.3777   3.5707   3.5989   3.7557   3.8006   3.8060

     highest occupied level (ev):     3.8060

!    total energy              =    -922.12634456 Ry
     Harris-Foulkes estimate   =    -922.12634456 Ry
     estimated scf accuracy    <          1.0E-13 Ry

     The total energy is the sum of the following terms:

     one-electron contribution =    -591.11704120 Ry
     hartree contribution      =     334.91169483 Ry
     xc contribution           =    -174.09904089 Ry
     ewald contribution        =    -491.69138839 Ry
     Dispersion Correction     =      -0.13056891 Ry

     convergence has been achieved in  26 iterations

     Writing output data file v2o5.save/

     General routines

     Parallel routines

   This run was terminated on:   1:40:45  13Oct2024

   JOB DONE.