     Program PWSCF v.6.5 starts on 20Feb2021 at 12:39: 1

     R & G space division:  proc/nbgrp/npool/nimage =      20
     Reading input from graph.vc.in

     Current dimensions of program PWSCF are:
     Max number of different atomic species (ntypx) = 10
     Max number of k-points (npk) =  40000
     Max angular momentum in pseudopotentials (lmaxx) =  3
               file C.pbesol-n-kjpaw_psl.1.0.0.UPF: wavefunction(s)  2S 2P renormalized

     Subspace diagonalization in iterative solution of the eigenvalue problem:
     a serial algorithm will be used

     Found symmetry operation: I + ( -0.0000  0.5000  0.0000)
     This is a supercell, fractional translations are disabled
     Message from routine setup:
     using ibrav=0 with symmetry is DISCOURAGED, use correct ibrav instead

     bravais-lattice index     =            0
     lattice parameter (alat)  =       9.2943  a.u.
     unit-cell volume          =    1017.0231 (a.u.)^3
     number of atoms/cell      =           16
     number of atomic types    =            1
     number of electrons       =        64.00
     number of Kohn-Sham states=           38
     kinetic-energy cutoff     =      60.0000  Ry
     charge density cutoff     =     600.0000  Ry
     convergence threshold     =      1.0E-10
     mixing beta               =       0.3000
     number of iterations used =            8  local-TF  mixing
     Exchange-correlation= SLA PW PSX PSC
                           (   1   4  10   8   0   0   0)
     nstep                     =          500

     celldm(1)=   9.294274  celldm(2)=   0.000000  celldm(3)=   0.000000
     celldm(4)=   0.000000  celldm(5)=   0.000000  celldm(6)=   0.000000

     crystal axes: (cart. coord. in units of alat)
               a(1) = (   1.000000   0.000000   0.000000 )
               a(2) = (  -0.500000   0.866025   0.000000 )
               a(3) = (   0.000000   0.000000   1.462695 )

     reciprocal axes: (cart. coord. in units 2 pi/alat)
               b(1) = (  1.000000  0.577350  0.000000 )
               b(2) = (  0.000000  1.154701  0.000000 )
               b(3) = (  0.000000  0.000000  0.683670 )

     PseudoPot. # 1 for C  read from file:
     ~/pseudos/C.pbesol-n-kjpaw_psl.1.0.0.UPF
     MD5 check sum: Not computed, couldn't open file
     Pseudo is Projector augmented-wave + core cor, Zval =  4.0
     Generated using "atomic" code by A. Dal Corso v.6.3
     Shape of augmentation charge: PSQ
     Using radial grid of 1073 points,  4 beta functions with:
                l(1) =   0
                l(2) =   0
                l(3) =   1
                l(4) =   1
     Q(r) pseudized with 0 coefficients

     atomic species   valence    mass     pseudopotential
        C              4.00    12.01100     C ( 1.00)

     12 Sym. Ops. (no inversion) found

   Cartesian axes

     site n.     atom                  positions (alat units)
         1           C   tau(   1) = (   0.0000000   0.0000000   0.0000000  )
         2           C   tau(   2) = (   0.0000000   0.0000000   0.7313474  )
         3           C   tau(   3) = (   0.2500002   0.1443377   0.0000000  )
         4           C   tau(   4) = (  -0.0000000   0.2886754   0.7313474  )
         5           C   tau(   5) = (  -0.2500002   0.4330126   0.0000000  )
         6           C   tau(   6) = (  -0.2499998   0.4330128   0.7313474  )
         7           C   tau(   7) = (   0.0000000   0.5773503   0.0000000  )
         8           C   tau(   8) = (  -0.2499998   0.7216877   0.7313474  )
         9           C   tau(   9) = (   0.5000000   0.0000002   0.0000000  )
        10           C   tau(  10) = (   0.5000000  -0.0000002   0.7313474  )
        11           C   tau(  11) = (   0.7499998   0.1443377   0.0000000  )
        12           C   tau(  12) = (   0.5000000   0.2886751   0.7313474  )
        13           C   tau(  13) = (   0.2500002   0.4330126   0.0000000  )
        14           C   tau(  14) = (   0.2499998   0.4330128   0.7313474  )
        15           C   tau(  15) = (   0.5000000   0.5773500   0.0000000  )
        16           C   tau(  16) = (   0.2499998   0.7216877   0.7313474  )

     number of k points=    12  Gaussian smearing, width (Ry)=  0.0020
                       cart. coord. in units 2pi/alat
        k(    1) = (   0.1250000   0.2165064   0.0854587), wk =   0.1250000
        k(    2) = (   0.1250000   0.2165064   0.2563761), wk =   0.1250000
        k(    3) = (   0.1250000   0.5051815   0.0854587), wk =   0.2500000
        k(    4) = (   0.1250000   0.5051815   0.2563761), wk =   0.2500000
        k(    5) = (   0.1250000  -0.3608439   0.0854587), wk =   0.2500000
        k(    6) = (   0.1250000  -0.3608439   0.2563761), wk =   0.2500000
        k(    7) = (   0.1250000  -0.0721688   0.0854587), wk =   0.1250000
        k(    8) = (   0.1250000  -0.0721688   0.2563761), wk =   0.1250000
        k(    9) = (   0.3750000   0.6495191   0.0854587), wk =   0.1250000
        k(   10) = (   0.3750000   0.6495191   0.2563761), wk =   0.1250000
        k(   11) = (   0.3750000  -0.2165064   0.0854587), wk =   0.1250000
        k(   12) = (   0.3750000  -0.2165064   0.2563761), wk =   0.1250000

     Check: negative core charge=   -0.000002

     Initial potential from superposition of free atoms

     starting charge   63.99933, renormalised to   64.00000
     Starting wfcs are   64 randomized atomic wfcs
     Checking if some PAW data can be deallocated...

     Self-consistent Calculation

     iteration #  1     ecut=    60.00 Ry     beta= 0.30
     Davidson diagonalization with overlap
     ethr =  1.00E-02,  avg # of iterations =  2.2

     total energy              =    -290.27803297 Ry
     Harris-Foulkes estimate   =    -290.56403864 Ry
     estimated scf accuracy    <       1.54048902 Ry

[...]

     End of self-consistent calculation

          k = 0.1250 0.2165 0.0855 (  7986 PWs)   bands (ev):

   -13.1054 -12.9460  -9.4814  -9.4814  -9.3604  -9.3604  -7.7854  -7.7285
    -6.8291  -6.7865  -5.2361  -5.2361  -5.1546  -5.1546  -1.7394  -1.3190
    -1.2789  -0.4717  -0.2918  -0.2918  -0.2625  -0.2625   2.2113   2.2238
     2.4530   2.4530   2.6401   2.6496   3.3711   3.3711   3.9526   4.3847
     7.6687   8.0321   8.9331   8.9331   9.5652   9.5652

[...]

     the Fermi energy is     6.4310 ev

!    total energy              =    -289.86526544 Ry
     Harris-Foulkes estimate   =    -289.86526544 Ry
     estimated scf accuracy    <          4.2E-11 Ry

     total all-electron energy =     -1214.329710 Ry

     The total energy is the sum of the following terms:

     one-electron contribution =     -63.33398101 Ry
     hartree contribution      =      63.30192060 Ry
     xc contribution           =     -73.38095024 Ry
     ewald contribution        =    -122.20298686 Ry
     one-center paw contrib.   =     -94.24926794 Ry
     smearing contrib. (-TS)   =      -0.00000000 Ry

     convergence has been achieved in  16 iterations

     Forces acting on atoms (cartesian axes, Ry/au):

     atom    1 type  1   force =     0.00000000    0.00000000    0.00000000
     atom    2 type  1   force =     0.00000000    0.00000000    0.00000000
     atom    3 type  1   force =    -0.00000137   -0.00000079   -0.00000000
     atom    4 type  1   force =     0.00000000   -0.00000170    0.00000000
     atom    5 type  1   force =     0.00000127    0.00000073    0.00000000
     atom    6 type  1   force =    -0.00000139   -0.00000080    0.00000000
     atom    7 type  1   force =     0.00000000    0.00000000    0.00000000
     atom    8 type  1   force =    -0.00000147    0.00000085    0.00000000
     atom    9 type  1   force =    -0.00000000   -0.00000146    0.00000000
     atom   10 type  1   force =     0.00000000    0.00000161    0.00000000
     atom   11 type  1   force =     0.00000137   -0.00000079    0.00000000
     atom   12 type  1   force =     0.00000000   -0.00000000    0.00000000
     atom   13 type  1   force =    -0.00000127    0.00000073    0.00000000
     atom   14 type  1   force =     0.00000139   -0.00000080   -0.00000000
     atom   15 type  1   force =     0.00000000    0.00000158    0.00000000
     atom   16 type  1   force =     0.00000147    0.00000085   -0.00000000

     Total force =     0.000005     Total SCF correction =     0.000000

     Computing stress (Cartesian axis) and pressure

          total   stress  (Ry/bohr**3)                   (kbar)     P=        0.18
   0.00000112   0.00000000   0.00000000            0.16        0.00        0.00
   0.00000000   0.00000112   0.00000000            0.00        0.16        0.00
   0.00000000  -0.00000000   0.00000144            0.00       -0.00        0.21

     BFGS Geometry Optimization

     bfgs converged in   1 scf cycles and   0 bfgs steps
     (criteria: energy <  1.0E-04 Ry, force <  1.0E-03Ry/Bohr, cell <  5.0E-01kbar)

     End of BFGS Geometry Optimization

     Final enthalpy =    -289.8652654423 Ry
Begin final coordinates
     new unit-cell volume =   1017.02306 a.u.^3 (   150.70727 Ang^3 )
     density =      2.11745 g/cm^3

CELL_PARAMETERS (angstrom)
   4.918318051   0.000000000   0.000000000
  -2.459159026   4.259388376   0.000000000
   0.000000000   0.000000000   7.193998513

ATOMIC_POSITIONS (angstrom)
C             0.0000000000        0.0000000000        0.0000000000
C             0.0000000000        0.0000000000        3.5969992573
C             1.2295805255        0.7098985056        0.0000000000
C            -0.0000001234        1.4197972594        3.5969992573
C            -1.2295803692        2.1296936943        0.0000000000
C            -1.2295786201        2.1296947040        3.5969992573
C             0.0000001224        2.8395921802        0.0000000000
C            -1.2295787162        3.5494898542        3.5969992573
C             2.4591590262        0.0000009885        0.0000000000
C             2.4591590262       -0.0000010311        3.5969992573
C             3.6887377716        0.7098985056        0.0000000000
C             2.4591589028        1.4197961969        3.5969992573
C             1.2295803692        2.1296936943        0.0000000000
C             1.2295786201        2.1296947040        3.5969992573
C             2.4591591485        2.8395911524        0.0000000000
C             1.2295784695        3.5494898542        3.5969992573
End final coordinates

     Writing output data file ./graph.save/

     Final scf calculation at the relaxed structure.
     The G-vectors are recalculated for the final unit cell
     Results may differ from those at the preceding step.

     bravais-lattice index     =            0
     lattice parameter (alat)  =       9.2943  a.u.
     unit-cell volume          =    1017.0231 (a.u.)^3
     number of atoms/cell      =           16
     number of atomic types    =            1
     number of electrons       =        64.00
     number of Kohn-Sham states=           38
     kinetic-energy cutoff     =      60.0000  Ry
     charge density cutoff     =     600.0000  Ry
     convergence threshold     =      1.0E-10
     mixing beta               =       0.3000
     number of iterations used =            8  local-TF  mixing
     Exchange-correlation= SLA PW PSX PSC
                           (   1   4  10   8   0   0   0)

     celldm(1)=   9.294274  celldm(2)=   0.000000  celldm(3)=   0.000000
     celldm(4)=   0.000000  celldm(5)=   0.000000  celldm(6)=   0.000000

     crystal axes: (cart. coord. in units of alat)
               a(1) = (   1.000000   0.000000   0.000000 )
               a(2) = (  -0.500000   0.866025   0.000000 )
               a(3) = (   0.000000   0.000000   1.462695 )

     reciprocal axes: (cart. coord. in units 2 pi/alat)
               b(1) = (  1.000000  0.577350  0.000000 )
               b(2) = (  0.000000  1.154701  0.000000 )
               b(3) = (  0.000000  0.000000  0.683670 )

     PseudoPot. # 1 for C  read from file:
     ~/pseudos/C.pbesol-n-kjpaw_psl.1.0.0.UPF
     MD5 check sum: Not computed, couldn't open file
     Pseudo is Projector augmented-wave + core cor, Zval =  4.0
     Generated using "atomic" code by A. Dal Corso v.6.3
     Shape of augmentation charge: PSQ
     Using radial grid of 1073 points,  4 beta functions with:
                l(1) =   0
                l(2) =   0
                l(3) =   1
                l(4) =   1
     Q(r) pseudized with 0 coefficients

     atomic species   valence    mass     pseudopotential
        C              4.00    12.01100     C ( 1.00)

     12 Sym. Ops. (no inversion) found

   Cartesian axes

     site n.     atom                  positions (alat units)
         1           C   tau(   1) = (   0.0000000   0.0000000   0.0000000  )
         2           C   tau(   2) = (   0.0000000   0.0000000   0.7313474  )
         3           C   tau(   3) = (   0.2500002   0.1443377   0.0000000  )
         4           C   tau(   4) = (  -0.0000000   0.2886754   0.7313474  )
         5           C   tau(   5) = (  -0.2500002   0.4330126   0.0000000  )
         6           C   tau(   6) = (  -0.2499998   0.4330128   0.7313474  )
         7           C   tau(   7) = (   0.0000000   0.5773503   0.0000000  )
         8           C   tau(   8) = (  -0.2499998   0.7216877   0.7313474  )
         9           C   tau(   9) = (   0.5000000   0.0000002   0.0000000  )
        10           C   tau(  10) = (   0.5000000  -0.0000002   0.7313474  )
        11           C   tau(  11) = (   0.7499998   0.1443377   0.0000000  )
        12           C   tau(  12) = (   0.5000000   0.2886751   0.7313474  )
        13           C   tau(  13) = (   0.2500002   0.4330126   0.0000000  )
        14           C   tau(  14) = (   0.2499998   0.4330128   0.7313474  )
        15           C   tau(  15) = (   0.5000000   0.5773500   0.0000000  )
        16           C   tau(  16) = (   0.2499998   0.7216877   0.7313474  )

     number of k points=    12  Gaussian smearing, width (Ry)=  0.0020
                       cart. coord. in units 2pi/alat
        k(    1) = (   0.1250000   0.2165064   0.0854587), wk =   0.1250000
        k(    2) = (   0.1250000   0.2165064   0.2563761), wk =   0.1250000
        k(    3) = (   0.1250000   0.5051815   0.0854587), wk =   0.2500000
        k(    4) = (   0.1250000   0.5051815   0.2563761), wk =   0.2500000
        k(    5) = (   0.1250000  -0.3608439   0.0854587), wk =   0.2500000
        k(    6) = (   0.1250000  -0.3608439   0.2563761), wk =   0.2500000
        k(    7) = (   0.1250000  -0.0721688   0.0854587), wk =   0.1250000
        k(    8) = (   0.1250000  -0.0721688   0.2563761), wk =   0.1250000
        k(    9) = (   0.3750000   0.6495191   0.0854587), wk =   0.1250000
        k(   10) = (   0.3750000   0.6495191   0.2563761), wk =   0.1250000
        k(   11) = (   0.3750000  -0.2165064   0.0854587), wk =   0.1250000
        k(   12) = (   0.3750000  -0.2165064   0.2563761), wk =   0.1250000

     Check: negative core charge=   -0.000002

     Initial potential from superposition of free atoms

     starting charge   63.99933, renormalised to   64.00000
     Starting wfcs are   64 randomized atomic wfcs
     Checking if some PAW data can be deallocated...

     Self-consistent Calculation

     iteration #  1     ecut=    60.00 Ry     beta= 0.30
     Davidson diagonalization with overlap
     c_bands:  2 eigenvalues not converged
     ethr =  1.00E-06,  avg # of iterations = 10.2

[...]

     total energy              =    -289.86526544 Ry
     Harris-Foulkes estimate   =    -289.86526544 Ry
     estimated scf accuracy    <          1.6E-09 Ry

     iteration # 14     ecut=    60.00 Ry     beta= 0.30
     Davidson diagonalization with overlap
     ethr =  5.36E-13,  avg # of iterations =  3.0

     End of self-consistent calculation

[...]

          k = 0.3750-0.2165 0.2564 (  7973 PWs)   bands (ev):

   -12.5051 -12.4415 -11.0440 -10.9868  -8.9325  -8.9325  -8.8848  -8.8848
    -4.8661  -4.8661  -4.8368  -4.8368  -2.8426  -2.8165  -2.1577  -2.1577
    -2.1384  -2.1384  -0.7403  -0.2335   0.4375   0.4521   0.6208   0.6306
     0.9723   1.4349   1.8647   1.8728   3.3256   3.3256   3.6944   3.6945
     8.7960   8.7960   8.9823   8.9823  11.6335  11.8592

     the Fermi energy is     6.4310 ev

!    total energy              =    -289.86526544 Ry
     Harris-Foulkes estimate   =    -289.86526544 Ry
     estimated scf accuracy    <          6.6E-12 Ry

     total all-electron energy =     -1214.329710 Ry

     The total energy is the sum of the following terms:

     one-electron contribution =     -63.33400175 Ry
     hartree contribution      =      63.30194864 Ry
     xc contribution           =     -73.38095666 Ry
     ewald contribution        =    -122.20298686 Ry
     one-center paw contrib.   =     -94.24926881 Ry
     smearing contrib. (-TS)   =      -0.00000000 Ry

     convergence has been achieved in  14 iterations

     Forces acting on atoms (cartesian axes, Ry/au):

     atom    1 type  1   force =     0.00000000    0.00000000    0.00000000
     atom    2 type  1   force =     0.00000000    0.00000000    0.00000000
     atom    3 type  1   force =    -0.00000140   -0.00000081    0.00000000
     atom    4 type  1   force =     0.00000000   -0.00000170    0.00000000
     atom    5 type  1   force =     0.00000129    0.00000075    0.00000000
     atom    6 type  1   force =    -0.00000138   -0.00000079    0.00000000
     atom    7 type  1   force =     0.00000000    0.00000000    0.00000000
     atom    8 type  1   force =    -0.00000147    0.00000085    0.00000000
     atom    9 type  1   force =     0.00000000   -0.00000149    0.00000000
     atom   10 type  1   force =     0.00000000    0.00000159    0.00000000
     atom   11 type  1   force =     0.00000140   -0.00000081    0.00000000
     atom   12 type  1   force =     0.00000000    0.00000000    0.00000000
     atom   13 type  1   force =    -0.00000129    0.00000075    0.00000000
     atom   14 type  1   force =     0.00000138   -0.00000079   -0.00000000
     atom   15 type  1   force =     0.00000000    0.00000161    0.00000000
     atom   16 type  1   force =     0.00000147    0.00000085   -0.00000000

     Total force =     0.000006     Total SCF correction =     0.000001
     SCF correction compared to forces is large: reduce conv_thr to get better values

     Computing stress (Cartesian axis) and pressure

          total   stress  (Ry/bohr**3)                   (kbar)     P=        0.18
   0.00000111   0.00000000   0.00000000            0.16        0.00        0.00
   0.00000000   0.00000111   0.00000000            0.00        0.16        0.00
   0.00000000   0.00000000   0.00000149            0.00        0.00        0.22

     Writing output data file ./graph.save/

     General routines

     Parallel routines

   This run was terminated on:  12:39:51  20Feb2021

   JOB DONE.