     Program PWSCF v.6.4.1 starts on  6Jun2024 at 18:29:57

     R & G space division:  proc/nbgrp/npool/nimage =      32
     Reading input from v16o39.rlx.in

     Current dimensions of program PWSCF are:
     Max number of different atomic species (ntypx) = 10
     Max number of k-points (npk) =  40000
     Max angular momentum in pseudopotentials (lmaxx) =  3

     Atomic positions and unit cell read from directory:
     outdir/ovac1.save/

     Message from routine readpp:
     file outdir/ovac1.save/V.pbe-spnl-kjpaw_psl.1.0.0.UPF not found
     Message from routine readpp:
     file outdir/ovac1.save/O.pbe-n-kjpaw_psl.1.0.0.UPF not found
               file V.pbe-spnl-kjpaw_psl.1.0.0.UPF: wavefunction(s)  3P 3D renormalized
               file O.pbe-n-kjpaw_psl.1.0.0.UPF: wavefunction(s)  2S 2P renormalized

     Parameters for Dispersion (Grimme-D2) Correction:
       atom      VdW radius       C_6

        V          2.952        374.666
        O          2.536         24.284

     Subspace diagonalization in iterative solution of the eigenvalue problem:
     one sub-group per band group will be used

     bravais-lattice index     =            8
     lattice parameter (alat)  =      13.5232  a.u.
     unit-cell volume          =    4911.3436 (a.u.)^3
     number of atoms/cell      =           55
     number of atomic types    =            2
     number of electrons       =       442.00
     number of Kohn-Sham states=          265
     kinetic-energy cutoff     =      65.0000  Ry
     charge density cutoff     =     650.0000  Ry
     convergence threshold     =      1.0E-10
     mixing beta               =       0.7000
     number of iterations used =            8  plain     mixing
     Exchange-correlation      = SLA PW PBX PBC ( 1  4  3  4 0 0)
     nstep                     =          500

     celldm(1)=  13.523246  celldm(2)=   1.231081  celldm(3)=   1.613135
     celldm(4)=   0.000000  celldm(5)=   0.000000  celldm(6)=   0.000000

     crystal axes: (cart. coord. in units of alat)
               a(1) = (   1.000000   0.000000   0.000000 )
               a(2) = (   0.000000   1.231081   0.000000 )
               a(3) = (   0.000000   0.000000   1.613135 )

     reciprocal axes: (cart. coord. in units 2 pi/alat)
               b(1) = (  1.000000  0.000000  0.000000 )
               b(2) = (  0.000000  0.812294  0.000000 )
               b(3) = (  0.000000  0.000000  0.619911 )

     PseudoPot. # 1 for V  read from file:
     /home/mpicuntureo/pseudos/V.pbe-spnl-kjpaw_psl.1.0.0.UPF
     MD5 check sum: 069c5df6a0a9f40a694a86a6cab52b89
     Pseudo is Projector augmented-wave + core cor, Zval = 13.0
     Generated using "atomic" code by A. Dal Corso v.6.3
     Shape of augmentation charge: PSQ
     Using radial grid of 1181 points,  6 beta functions with:
                l(1) =   0
                l(2) =   0
                l(3) =   1
                l(4) =   1
                l(5) =   2
                l(6) =   2
     Q(r) pseudized with 0 coefficients

     PseudoPot. # 2 for O  read from file:
     /home/mpicuntureo/pseudos/O.pbe-n-kjpaw_psl.1.0.0.UPF
     MD5 check sum: e99d9cef9b487d1ca56f5b95ecd0fd7a
     Pseudo is Projector augmented-wave + core cor, Zval =  6.0
     Generated using "atomic" code by A. Dal Corso v.6.3
     Shape of augmentation charge: PSQ
     Using radial grid of 1095 points,  4 beta functions with:
                l(1) =   0
                l(2) =   0
                l(3) =   1
                l(4) =   1
     Q(r) pseudized with 0 coefficients

     atomic species   valence    mass     pseudopotential
        V             13.00    50.94150     V ( 1.00)
        O              6.00    15.99940     O ( 1.00)

     Simplified LDA+U calculation (l_max = 2) with parameters (eV):
     atomic species    L          U    alpha       J0     beta
        V              2     4.0000   0.0000   0.0000   0.0000

      2 Sym. Ops. (no inversion) found ( 1 have fractional translation)

   Cartesian axes

     site n.     atom                  positions (alat units)
         1           V   tau(   1) = (  -0.0004010   0.2334758   1.0470264  )
         2           V   tau(   2) = (   0.2500000   0.3841442   1.3692691  )
         3           V   tau(   3) = (   0.2500000   0.3820100   0.2386917  )
         4           V   tau(   4) = (   0.0007547   0.2320828   0.5644637  )
         5           O   tau(   5) = (   0.2500000   0.3046578   1.0969932  )
         6           O   tau(   6) = (  -0.0006793   0.3136983   1.3201610  )
         7           O   tau(   7) = (  -0.0014728   0.3136713   0.2910395  )
         8           O   tau(   8) = (   0.2500000   0.2995540   0.5110307  )
         9           O   tau(   9) = (   0.0037082   0.0090584   0.5651379  )
        10           O   tau(  10) = (   0.2500000   0.6049023   0.2391472  )
        11           O   tau(  11) = (   0.2500000   0.6065425   1.3680386  )
        12           O   tau(  12) = (   0.2500000   0.3187868  -0.0022562  )
        13           O   tau(  13) = (  -0.0005888   0.2982414   0.8055107  )
        14           O   tau(  14) = (  -0.0006747   0.0108238   1.0471093  )
        15           V   tau(  15) = (  -0.0007985   0.8576036   1.0442535  )
        16           V   tau(  16) = (   0.2500000   0.9977863   1.3621918  )
        17           V   tau(  17) = (   0.2500000   0.9974882   0.2200849  )
        18           V   tau(  18) = (  -0.0046716   0.8433693   0.5732180  )
        19           O   tau(  19) = (   0.2500000   0.9236495   1.0995811  )
        20           O   tau(  20) = (  -0.0020310   0.9255407   1.3189963  )
        21           O   tau(  21) = (   0.0195479   0.9282642   0.3163821  )
        22           O   tau(  22) = (   0.0267492   0.6231686   0.5768121  )
        23           O   tau(  23) = (   0.2500000   1.2204086   0.2176966  )
        24           O   tau(  24) = (   0.2500000   1.2193444   1.3746739  )
        25           O   tau(  25) = (   0.2500000   0.9195497  -0.0089043  )
        26           O   tau(  26) = (   0.0313330   0.9282324   0.8007330  )
        27           O   tau(  27) = (  -0.0047691   0.6358996   1.0357639  )
        28           V   tau(  28) = (   0.5004010   0.2334759   1.0470264  )
        29           V   tau(  29) = (   0.7500000   0.3857784   1.3714309  )
        30           V   tau(  30) = (   0.7500000   0.3886979   0.2428124  )
        31           V   tau(  31) = (   0.4992453   0.2320829   0.5644637  )
        32           O   tau(  32) = (   0.7500000   0.3050976   1.0981402  )
        33           O   tau(  33) = (   0.5006793   0.3136983   1.3201610  )
        34           O   tau(  34) = (   0.5014728   0.3136713   0.2910395  )
        35           O   tau(  35) = (   0.7500000   0.3031679   0.5138571  )
        36           O   tau(  36) = (   0.4962918   0.0090585   0.5651379  )
        37           O   tau(  37) = (   0.7500000   0.6131075   0.2485453  )
        38           O   tau(  38) = (   0.7500000   0.6085470   1.3695576  )
        39           O   tau(  39) = (   0.7500000   0.3237886   0.0018448  )
        40           O   tau(  40) = (   0.5005888   0.2982415   0.8055107  )
        41           O   tau(  41) = (   0.5006747   0.0108239   1.0471093  )
        42           V   tau(  42) = (   0.5007985   0.8576036   1.0442535  )
        43           V   tau(  43) = (   0.7500000   0.9926214   1.3753870  )
        44           V   tau(  44) = (   0.7500000   0.9794908   0.2486600  )
        45           V   tau(  45) = (   0.5046716   0.8433693   0.5732181  )
        46           O   tau(  46) = (   0.7500000   0.9300929   1.0861216  )
        47           O   tau(  47) = (   0.5020310   0.9255407   1.3189963  )
        48           O   tau(  48) = (   0.4804521   0.9282643   0.3163821  )
        49           O   tau(  49) = (   0.7500000   0.8975435   0.5283118  )
        50           O   tau(  50) = (   0.4732508   0.6231687   0.5768121  )
        51           O   tau(  51) = (   0.7500000   1.2007992   0.2494514  )
        52           O   tau(  52) = (   0.7500000   1.2142056   1.3849943  )
        53           O   tau(  53) = (   0.7500000   0.9234002   0.0090072  )
        54           O   tau(  54) = (   0.4686670   0.9282325   0.8007330  )
        55           O   tau(  55) = (   0.5047691   0.6358997   1.0357639  )

     number of k points=     8  gaussian smearing, width (Ry)=  0.0500
                       cart. coord. in units 2pi/alat
        k(    1) = (   0.0000000   0.0000000   0.0000000), wk =   0.2500000
        k(    2) = (   0.0000000   0.0000000  -0.3099554), wk =   0.2500000
        k(    3) = (   0.0000000  -0.4061470   0.0000000), wk =   0.2500000
        k(    4) = (   0.0000000  -0.4061470  -0.3099554), wk =   0.2500000
        k(    5) = (  -0.5000000   0.0000000   0.0000000), wk =   0.2500000
        k(    6) = (  -0.5000000   0.0000000  -0.3099554), wk =   0.2500000
        k(    7) = (  -0.5000000  -0.4061470   0.0000000), wk =   0.2500000
        k(    8) = (  -0.5000000  -0.4061470  -0.3099554), wk =   0.2500000

     Check: negative core charge=   -0.000001

     The initial density is read from file :
     outdir/ovac1.save/charge-density

     negative rho (up, down):  1.322E-03 0.000E+00
     Number of +U iterations with fixed ns =  0
     Starting occupations:
 --- enter write_ns ---
 LDA+U parameters:
U( 1)     =  4.00000000
alpha( 1) =  0.00000000
atom    1   Tr[ns(na)] =   4.57397
    eigenvalues:
  0.316  0.469  0.470  0.490  0.542
    eigenvectors:
  0.000  0.000  0.130  0.548  0.323
  0.999  0.001  0.000  0.000  0.000
  0.000  0.004  0.773  0.220  0.003
  0.000  0.000  0.094  0.232  0.674
  0.001  0.995  0.003  0.001  0.000
    occupations:
  0.504 -0.000  0.004  0.027  0.000
 -0.000  0.316  0.000  0.001  0.005
  0.004  0.000  0.475 -0.007  0.000
  0.027  0.001 -0.007  0.523 -0.000
  0.000  0.005  0.000 -0.000  0.469
atom    2   Tr[ns(na)] =   4.57690
    eigenvalues:
  0.312  0.469  0.472  0.491  0.545
    eigenvectors:
  0.000  0.000  0.130  0.558  0.312
  0.998  0.002  0.000  0.000  0.000
  0.000  0.000  0.769  0.226  0.005
  0.000  0.000  0.101  0.216  0.684
  0.002  0.998  0.000  0.000  0.000
    occupations:
  0.505 -0.000  0.004  0.027  0.000
 -0.000  0.312 -0.000  0.000  0.007
  0.004 -0.000  0.477 -0.008  0.000
  0.027  0.000 -0.008  0.526 -0.000
  0.000  0.007  0.000 -0.000  0.469
atom    3   Tr[ns(na)] =   4.57266
    eigenvalues:
  0.320  0.464  0.470  0.489  0.543
    eigenvectors:
  0.000  0.000  0.149  0.525  0.326
  0.998  0.002  0.000  0.000  0.000
  0.000  0.000  0.738  0.258  0.004
  0.000  0.000  0.113  0.217  0.670
  0.002  0.998  0.000  0.000  0.000
    occupations:
  0.504 -0.000 -0.004  0.027  0.000
 -0.000  0.321 -0.000  0.000 -0.006
 -0.004 -0.000  0.475  0.008  0.000
  0.027  0.000  0.008  0.523 -0.000
  0.000 -0.006  0.000 -0.000  0.464
atom    4   Tr[ns(na)] =   4.57374
    eigenvalues:
  0.318  0.465  0.471  0.489  0.543
    eigenvectors:
  0.000  0.008  0.150  0.544  0.299
  0.998  0.001  0.001  0.000  0.000
  0.000  0.005  0.742  0.250  0.003
  0.000  0.001  0.097  0.205  0.697
  0.001  0.985  0.011  0.002  0.001
    occupations:
[...]
atom   15   Tr[ns(na)] =   4.56724
    eigenvalues:
  0.311  0.470  0.474  0.483  0.547
    eigenvectors:
  0.010  0.085  0.030  0.625  0.251
  0.988  0.000  0.001  0.009  0.001
  0.001  0.703  0.152  0.143  0.000
  0.000  0.020  0.012  0.221  0.747
  0.001  0.192  0.805  0.002  0.000
    occupations:
  0.496  0.018  0.004  0.029 -0.000
  0.018  0.313  0.006 -0.001 -0.004
  0.004  0.006  0.472 -0.001  0.002
  0.029 -0.001 -0.001  0.530 -0.001
 -0.000 -0.004  0.002 -0.001  0.473
atom   16   Tr[ns(na)] =   4.57196
    eigenvalues:
  0.297  0.474  0.482  0.488  0.545
    eigenvectors:
  0.000  0.000  0.037  0.656  0.306
  0.999  0.001  0.000  0.000  0.000
  0.000  0.000  0.923  0.074  0.004
  0.000  0.000  0.040  0.270  0.690
  0.001  0.999  0.000  0.000  0.000
    occupations:
  0.505 -0.000  0.001  0.026  0.000
 -0.000  0.297 -0.000  0.000 -0.004
  0.001 -0.000  0.483  0.004  0.000
  0.026  0.000  0.004  0.527 -0.000
  0.000 -0.004  0.000 -0.000  0.474
atom   17   Tr[ns(na)] =   4.61998
    eigenvalues:
  0.377  0.434  0.472  0.491  0.538
    eigenvectors:
  0.000  0.477  0.000  0.183  0.341
  0.993  0.000  0.007  0.000  0.000
  0.000  0.270  0.000  0.730  0.000
  0.000  0.254  0.000  0.087  0.659
  0.007  0.000  0.993  0.000  0.000
    occupations:
  0.479 -0.000 -0.020  0.042  0.000
 -0.000  0.377 -0.000  0.000  0.008
 -0.020 -0.000  0.475  0.015  0.000
  0.042  0.000  0.015  0.507 -0.000
  0.000  0.008  0.000 -0.000  0.471
atom   18   Tr[ns(na)] =   4.56781
    eigenvalues:
  0.322  0.456  0.472  0.493  0.541
    eigenvectors:
  0.011  0.004  0.440  0.036  0.509
  0.961  0.000  0.009  0.021  0.009
  0.024  0.090  0.104  0.779  0.004
  0.003  0.050  0.401  0.118  0.428
  0.001  0.857  0.045  0.046  0.051
    occupations:
  0.506 -0.020 -0.009  0.030  0.013
 -0.020  0.329 -0.025 -0.013  0.005
 -0.009 -0.025  0.484  0.004 -0.008
  0.030 -0.013  0.004  0.503  0.012
  0.013  0.005 -0.008  0.012  0.463
atom   28   Tr[ns(na)] =   4.57340
    eigenvalues:
  0.317  0.469  0.470  0.490  0.542
    eigenvectors:
  0.000  0.000  0.126  0.549  0.325
  0.998  0.002  0.000  0.000  0.000
  0.000  0.003  0.771  0.221  0.004
  0.000  0.000  0.100  0.229  0.671
  0.002  0.995  0.003  0.001  0.000
    occupations:
  0.504  0.000  0.004  0.027 -0.000
  0.000  0.317 -0.000 -0.000  0.006
  0.004 -0.000  0.475 -0.008 -0.000
  0.027 -0.000 -0.008  0.523  0.000
 -0.000  0.006 -0.000  0.000  0.469
atom   29   Tr[ns(na)] =   4.56812
    eigenvalues:
  0.319  0.468  0.470  0.487  0.540
    eigenvectors:
  0.000  0.115  0.000  0.587  0.298
  0.998  0.000  0.002  0.000  0.000
  0.000  0.793  0.000  0.201  0.006
  0.000  0.092  0.000  0.212  0.696
  0.002  0.000  0.998  0.000  0.000
    occupations:
  0.501 -0.000  0.004  0.026  0.000
 -0.000  0.319 -0.000  0.000  0.007
  0.004 -0.000  0.472 -0.009  0.000
  0.026  0.000 -0.009  0.522 -0.000
  0.000  0.007  0.000 -0.000  0.470
atom   30   Tr[ns(na)] =   4.56675
    eigenvalues:
  0.324  0.466  0.467  0.493  0.533
    eigenvectors:
  0.000  0.000  0.072  0.609  0.319
  0.993  0.007  0.000  0.000  0.000
  0.000  0.000  0.824  0.161  0.015
  0.000  0.000  0.105  0.230  0.665
  0.007  0.993  0.000  0.000  0.000
    occupations:
  0.504 -0.000 -0.003  0.021  0.000
 -0.000  0.325 -0.000  0.000 -0.012
 -0.003 -0.000  0.472  0.012  0.000
  0.021  0.000  0.012  0.517 -0.000
  0.000 -0.012  0.000 -0.000  0.465
atom   31   Tr[ns(na)] =   4.57306
    eigenvalues:
  0.318  0.465  0.471  0.489  0.542
    eigenvectors:
  0.000  0.005  0.152  0.544  0.298
  0.998  0.002  0.000  0.000  0.000
  0.000  0.003  0.737  0.256  0.004
  0.000  0.002  0.103  0.198  0.697
  0.002  0.988  0.008  0.002  0.000
    occupations:
  0.502  0.001 -0.004  0.027 -0.001
  0.001  0.319  0.002 -0.002 -0.006
 -0.004  0.002  0.476  0.008  0.000
  0.027 -0.002  0.008  0.524 -0.000
 -0.001 -0.006  0.000 -0.000  0.465
atom   42   Tr[ns(na)] =   4.56724
    eigenvalues:
  0.311  0.470  0.474  0.483  0.547
    eigenvectors:
  0.010  0.085  0.030  0.625  0.251
  0.988  0.000  0.001  0.009  0.001
  0.001  0.703  0.152  0.143  0.000
  0.000  0.020  0.012  0.221  0.747
  0.001  0.192  0.805  0.002  0.000
    occupations:
  0.496 -0.018  0.004  0.029  0.000
 -0.018  0.313 -0.006  0.001 -0.004
  0.004 -0.006  0.472 -0.001 -0.002
  0.029  0.001 -0.001  0.530  0.001
  0.000 -0.004 -0.002  0.001  0.473
atom   43   Tr[ns(na)] =   4.55604
    eigenvalues:
  0.337  0.454  0.471  0.471  0.544
    eigenvectors:
  0.000  0.295  0.494  0.000  0.212
  0.999  0.000  0.000  0.001  0.000
  0.000  0.643  0.356  0.000  0.001
  0.000  0.062  0.151  0.000  0.787
  0.001  0.000  0.000  0.999  0.000
    occupations:
  0.481 -0.000  0.009  0.032  0.000
 -0.000  0.337 -0.000  0.000 -0.003
  0.009 -0.000  0.460 -0.001  0.000
  0.032  0.000 -0.001  0.528 -0.000
  0.000 -0.003  0.000 -0.000  0.471
atom   44   Tr[ns(na)] =   4.53697
    eigenvalues:
  0.368  0.428  0.447  0.477  0.549
    eigenvectors:
  0.000  0.519  0.000  0.040  0.441
  0.944  0.000  0.056  0.000  0.000
  0.000  0.066  0.000  0.934  0.000
  0.000  0.415  0.000  0.026  0.559
  0.056  0.000  0.944  0.000  0.000
    occupations:
  0.483 -0.000 -0.009  0.058  0.000
 -0.000  0.372 -0.000  0.000 -0.018
 -0.009 -0.000  0.474  0.009  0.000
  0.058  0.000  0.009  0.497 -0.000
  0.000 -0.018  0.000 -0.000  0.442
atom   45   Tr[ns(na)] =   4.56781
    eigenvalues:
  0.322  0.456  0.472  0.493  0.541
    eigenvectors:
  0.011  0.004  0.440  0.036  0.509
  0.961  0.000  0.009  0.021  0.009
  0.024  0.090  0.104  0.779  0.004
  0.003  0.050  0.401  0.118  0.428
  0.001  0.857  0.045  0.046  0.051
    occupations:
  0.506  0.020 -0.009  0.030 -0.013
  0.020  0.329  0.025  0.013  0.005
 -0.009  0.025  0.484  0.004  0.008
  0.030  0.013  0.004  0.503 -0.012
 -0.013  0.005  0.008 -0.012  0.463
N of occupied +U levels =   73.131090
 --- exit write_ns ---

[...]

          k = 0.0000-0.4061-0.3100 ( 43472 PWs)   bands (ev):

[...]

          k =-0.5000-0.4061-0.3100 ( 43472 PWs)   bands (ev):

   -60.2436 -60.1345 -60.1298 -60.1248 -60.0861 -60.0508 -60.0072 -59.9953
   -59.9925 -59.9889 -59.9868 -59.9867 -59.9736 -59.9639 -59.9626 -59.9266
   -34.2783 -34.1199 -34.1128 -34.1047 -34.0932 -34.0920 -34.0487 -34.0366
   -34.0210 -34.0185 -33.9980 -33.9950 -33.9873 -33.9855 -33.9816 -33.9703
   -33.9670 -33.9644 -33.9620 -33.9550 -33.9523 -33.9484 -33.9472 -33.9234
   -33.9225 -33.9058 -33.9012 -33.8971 -33.8951 -33.8893 -33.8788 -33.8749
   -33.8693 -33.8646 -33.8549 -33.8513 -33.8497 -33.8338 -33.8257 -33.8185
   -33.8092 -33.8061 -33.8034 -33.8003 -33.7991 -33.7895 -33.7891 -33.7690
   -13.4973 -13.1855 -13.0781 -13.0420 -12.9367 -12.9288 -12.9170 -12.9145
   -12.7396 -12.4060 -12.3177 -12.3073 -12.2783 -12.2650 -12.2158 -12.0606
   -12.0582 -12.0541 -12.0529 -12.0377 -12.0350 -12.0326 -12.0256 -12.0221
   -11.9183 -11.9018 -11.8983 -11.8778 -11.8664 -11.8614 -11.7779 -11.7703
   -11.7291 -11.7164 -11.6988 -11.6988 -11.6881 -11.6787 -11.6571  -0.9289
    -0.7952  -0.6574  -0.6049  -0.5436  -0.5331  -0.5189  -0.5125  -0.1722
    -0.1553  -0.1088  -0.0134   0.0367   0.0381   0.0447   0.0462   0.1036
     0.1607   0.2589   0.2941   0.3488   0.3730   0.3845   0.3989   0.4639
     0.4768   0.5191   0.5301   0.5565   0.6138   0.6318   0.6727   0.7187
     0.7379   0.7437   0.7964   0.8321   0.8635   0.8874   0.9432   0.9466
     0.9650   0.9651   1.0142   1.0217   1.0356   1.0494   1.1735   1.3115
     1.4058   1.4790   1.4866   1.5226   1.5358   1.5626   1.5724   1.6874
     1.6916   1.8810   1.9397   1.9729   1.9739   2.0055   2.0134   2.0448
     2.0471   2.1120   2.1147   2.1292   2.1475   2.1510   2.1715   2.1857
     2.1887   2.2435   2.2953   2.3228   2.3480   2.3522   2.4598   2.5087
     2.5484   2.5852   2.6094   2.6299   2.6491   2.7068   2.7549   2.8639
     2.8958   2.9482   3.0078   3.0139   3.0156   3.0680   3.1002   3.2144
     3.3132   3.3506   3.3946   3.4295   3.4585   3.5333   3.5606   3.5781
     3.5984   3.6138   3.6198   3.6406   3.6877   3.7136   3.7368   3.7460
     3.8632   3.8654   3.8718   3.8752   5.7973   6.4050   6.5811   6.6132
     6.7217   6.7491   6.7553   6.7580   6.7852   7.1120   7.1197   7.2525
     7.2893   7.3130   7.4246   7.4276   7.4553   7.4666   7.4713   7.4892
     7.5308   7.5311   7.5569   7.5677   7.5696   7.5722   7.6239   7.6455
     7.7841   7.7925   7.8018   7.8084   7.8315   7.8348   7.8366   7.8785
     7.9330   7.9457   7.9581   7.9798   7.9868   7.9902   8.0745   8.1061
     8.1090

     the Fermi energy is     5.8557 ev

!    total energy              =   -5047.70759035 Ry
     Harris-Foulkes estimate   =   -5047.70759035 Ry
     estimated scf accuracy    <          8.8E-13 Ry

     total all-electron energy =    -36246.276369 Ry

     The total energy is the sum of the following terms:

     one-electron contribution =   -2313.74620237 Ry
     hartree contribution      =    1325.38311414 Ry
     xc contribution           =    -612.02947717 Ry
     ewald contribution        =   -1960.47119776 Ry
     Dispersion Correction     =      -0.51308741 Ry
     Hubbard energy            =       5.71115566 Ry
     one-center paw contrib.   =   -1491.93995384 Ry
     smearing contrib. (-TS)   =      -0.10194160 Ry

     convergence has been achieved in  24 iterations

     negative rho (up, down):  1.467E-03 0.000E+00

     Forces acting on atoms (cartesian axes, Ry/au):

     atom    1 type  1   force =     0.00000017   -0.00002958   -0.00000265
     atom    2 type  1   force =     0.00000000   -0.00006830   -0.00000450
     atom    3 type  1   force =     0.00000000    0.00003691   -0.00000206
     atom    4 type  1   force =     0.00000472    0.00005633    0.00000391
     atom    5 type  2   force =     0.00000000   -0.00001372    0.00001157
     atom    6 type  2   force =    -0.00000382   -0.00000001   -0.00001125
     atom    7 type  2   force =    -0.00000013   -0.00000071    0.00000397
     atom    8 type  2   force =     0.00000000    0.00003336    0.00001333
     atom    9 type  2   force =     0.00002631   -0.00004482   -0.00000991
     atom   10 type  2   force =     0.00000000    0.00002265    0.00000611
     atom   11 type  2   force =     0.00000000    0.00008325   -0.00001777
     atom   12 type  2   force =     0.00000000   -0.00001794    0.00000438
     atom   13 type  2   force =     0.00000813    0.00002336   -0.00000448
     atom   14 type  2   force =     0.00000871   -0.00000511    0.00001209
     atom   15 type  1   force =    -0.00005140    0.00001964   -0.00001159
     atom   16 type  1   force =     0.00000000   -0.00002482   -0.00003346
     atom   17 type  1   force =     0.00000000   -0.00008906   -0.00003225
     atom   18 type  1   force =     0.00002332   -0.00004070    0.00001930
     atom   19 type  2   force =     0.00000000    0.00005425    0.00009938
     atom   20 type  2   force =    -0.00001896    0.00003277    0.00000996
     atom   21 type  2   force =    -0.00000077    0.00000877   -0.00008029
     atom   22 type  2   force =    -0.00000293   -0.00001658    0.00002435
     atom   23 type  2   force =     0.00000000    0.00008029   -0.00003573
     atom   24 type  2   force =     0.00000000   -0.00006560    0.00002568
     atom   25 type  2   force =     0.00000000    0.00004595   -0.00000733
     atom   26 type  2   force =    -0.00000677    0.00004250    0.00005904
     atom   27 type  2   force =    -0.00002480   -0.00006376    0.00000948
     atom   28 type  1   force =    -0.00000017   -0.00002958   -0.00000265
     atom   29 type  1   force =     0.00000000    0.00001181   -0.00002113
     atom   30 type  1   force =     0.00000000   -0.00006264   -0.00000657
     atom   31 type  1   force =    -0.00000472    0.00005633    0.00000391
     atom   32 type  2   force =     0.00000000    0.00002574   -0.00002697
     atom   33 type  2   force =     0.00000382   -0.00000001   -0.00001125
     atom   34 type  2   force =     0.00000013   -0.00000071    0.00000397
     atom   35 type  2   force =     0.00000000    0.00001899    0.00002258
     atom   36 type  2   force =    -0.00002631   -0.00004482   -0.00000991
     atom   37 type  2   force =     0.00000000    0.00004423   -0.00000463
     atom   38 type  2   force =     0.00000000    0.00004614   -0.00000565
     atom   39 type  2   force =     0.00000000    0.00001249   -0.00001586
     atom   40 type  2   force =    -0.00000813    0.00002336   -0.00000448
     atom   41 type  2   force =    -0.00000871   -0.00000511    0.00001209
     atom   42 type  1   force =     0.00005140    0.00001964   -0.00001159
     atom   43 type  1   force =     0.00000000   -0.00006819    0.00008957
     atom   44 type  1   force =     0.00000000   -0.00006637   -0.00003123
     atom   45 type  1   force =    -0.00002332   -0.00004070    0.00001930
     atom   46 type  2   force =     0.00000000   -0.00004458   -0.00001248
     atom   47 type  2   force =     0.00001896    0.00003277    0.00000996
     atom   48 type  2   force =     0.00000077    0.00000877   -0.00008029
     atom   49 type  2   force =     0.00000000   -0.00002292   -0.00000912
     atom   50 type  2   force =     0.00000293   -0.00001658    0.00002435
     atom   51 type  2   force =     0.00000000    0.00008837    0.00005100
     atom   52 type  2   force =     0.00000000   -0.00000322   -0.00001182
     atom   53 type  2   force =     0.00000000   -0.00002126   -0.00008892
     atom   54 type  2   force =     0.00000677    0.00004250    0.00005904
     atom   55 type  2   force =     0.00002480   -0.00006376    0.00000948

     Total force =     0.000413     Total SCF correction =     0.000003

     bfgs converged in  30 scf cycles and  29 bfgs steps
     (criteria: energy <  1.0E-04 Ry, force <  1.0E-04 Ry/Bohr)

     End of BFGS Geometry Optimization

     Final energy   =   -5047.7075903450 Ry
Begin final coordinates

ATOMIC_POSITIONS (angstrom)
V       -0.002205309   1.668129142   7.493267168
V        1.789048327   2.752827564   9.797657560
V        1.789048327   2.736033338   1.709013530
V        0.002732361   1.657928544   4.035648579
O        1.789048240   2.181612750   7.850099243
O       -0.005098583   2.247504594   9.446724791
O       -0.012100187   2.247463111   2.080576751
O        1.789048240   2.134121998   3.652871400
O        0.011855504   0.061806041   4.032380152
O        1.789048376   4.331268578   1.721072857
O        1.789048376   4.344014516   9.785110191
O        1.789048338   2.286420152  -0.015498151
O       -0.001618228   2.124582324   5.763282898
O       -0.002993904   0.074494569   7.502925675
V       -0.004654879   6.146373355   7.471175550
V        1.789048363   7.143587162   9.751300876
V        1.789048363   7.125620644   1.575252701
V       -0.034379586   6.033566895   4.104814969
O        1.789048419   6.617920608   7.869980052
O       -0.013477721   6.626938419   9.439713095
O        0.140036495   6.630954386   2.264762177
O        0.191961816   4.457955415   4.140568298
O        1.789048254   8.721211249   1.561816806
O        1.789048254   8.729133789   9.848992844
O        1.789048325   6.570812416  -0.064377369
O        0.226496666   6.652241791   5.728491972
O       -0.031712535   4.559612810   7.408143240
V        3.580302016   1.668129997   7.493267183
V        5.367145102   2.766816503   9.809846875
V        5.367145102   2.789463670   1.736738246
V        3.575364347   1.657929399   4.035648564
O        5.367145189   2.182384302   7.855944218
O        3.583195290   2.247504855   9.446724873
O        3.590196895   2.247463371   2.080576669
O        5.367145189   2.177916899   3.677260090
O        3.566241204   0.061806742   4.032379958
O        5.367145054   4.395813930   1.783732238
O        5.367145054   4.360737705   9.786911650
O        5.367145091   2.330374661   0.011366034
O        3.579714935   2.124582928   5.763282898
O        3.581090611   0.074495269   7.502925869
V        3.582751586   6.146373575   7.471175485
V        5.367145066   7.103401287   9.842353238
V        5.367145066   6.996316011   1.774473535
V        3.612476294   6.033567115   4.104815034
O        5.367145010   6.662600221   7.772401535
O        3.591574428   6.626938528   9.439713029
O        3.438060212   6.630954495   2.264762243
O        5.367145010   6.419442119   3.785091192
O        3.386134891   4.457955560   4.140568425
O        5.367145175   8.580580706   1.775083092
O        5.367145175   8.688871643   9.924095150
O        5.367145104   6.592066238   0.060196065
O        3.351600041   6.652242316   5.728491972
O        3.609809242   4.559612956   7.408143113
End final coordinates

     Writing output data file ovac1.save/

     General routines

     Parallel routines

     Hubbard U routines

   This run was terminated on:   9:26: 7  10Jun2024

   JOB DONE.