     Program PWSCF v.6.4.1 starts on 10Mar2024 at 18:40: 6

     R & G space division:  proc/nbgrp/npool/nimage =      16
     Reading input from graph.vc.in

     Current dimensions of program PWSCF are:
     Max number of different atomic species (ntypx) = 10
     Max number of k-points (npk) =  40000
     Max angular momentum in pseudopotentials (lmaxx) =  3

     IMPORTANT: XC functional enforced from input :
     Exchange-correlation      = VDW-DF ( 1  4  4  0 1 0)
     Any further DFT definition will be discarded
     Please, verify this is what you really want

               file C.pbesol-n-kjpaw_psl.1.0.0.UPF: wavefunction(s)  2S 2P renormalized

     Subspace diagonalization in iterative solution of the eigenvalue problem:
     one sub-group per band group will be used

     Message from routine setup:
     DEPRECATED: symmetry with ibrav=0, use correct ibrav instead

     bravais-lattice index     =            0
     lattice parameter (alat)  =       4.6412  a.u.
     unit-cell volume          =     236.0493 (a.u.)^3
     number of atoms/cell      =            4
     number of atomic types    =            1
     number of electrons       =        16.00
     number of Kohn-Sham states=           12
     kinetic-energy cutoff     =      40.0000  Ry
     charge density cutoff     =     500.0000  Ry
     convergence threshold     =      1.0E-06
     mixing beta               =       0.4000
     number of iterations used =            8  plain     mixing
     Exchange-correlation      = VDW-DF ( 1  4  4  0 1 0)
     nstep                     =          500

     celldm(1)=   4.641170  celldm(2)=   0.000000  celldm(3)=   0.000000
     celldm(4)=   0.000000  celldm(5)=   0.000000  celldm(6)=   0.000000

     crystal axes: (cart. coord. in units of alat)
               a(1) = (   1.000000   0.000000   0.000000 )
               a(2) = (  -0.500000   0.866025   0.000000 )
               a(3) = (   0.000000   0.000000   2.726400 )

     reciprocal axes: (cart. coord. in units 2 pi/alat)
               b(1) = (  1.000000  0.577350 -0.000000 )
               b(2) = (  0.000000  1.154701  0.000000 )
               b(3) = (  0.000000 -0.000000  0.366784 )

     PseudoPot. # 1 for C  read from file:
     /home/mpicuntureo/pseudos/C.pbesol-n-kjpaw_psl.1.0.0.UPF
     MD5 check sum: f9b2fe17d1f478429498b05d17159f9e
     Pseudo is Projector augmented-wave + core cor, Zval =  4.0
     Generated using "atomic" code by A. Dal Corso v.6.3
     Shape of augmentation charge: PSQ
     Using radial grid of 1073 points,  4 beta functions with:
                l(1) =   0
                l(2) =   0
                l(3) =   1
                l(4) =   1
     Q(r) pseudized with 0 coefficients

     vdW kernel table read from file vdW_kernel_table
     MD5 check sum: 8c4337f4b28e1601c069d7ef7b6561bc

     atomic species   valence    mass     pseudopotential
        C              4.00    12.01100     C ( 1.00)

     24 Sym. Ops., with inversion, found (12 have fractional translation)

   Cartesian axes

     site n.     atom                  positions (alat units)
         1           C   tau(   1) = (   0.0000000   0.0000000   0.0000000  )
         2           C   tau(   2) = (   0.0000000   0.5773503   0.0000000  )
         3           C   tau(   3) = (   0.0000000   0.0000000   1.3632000  )
         4           C   tau(   4) = (   0.5000000   0.2886751   1.3632000  )

     number of k points=    28  gaussian smearing, width (Ry)=  0.1000
                       cart. coord. in units 2pi/alat
        k(    1) = (   0.0000000   0.0000000   0.0000000), wk =   0.0092593
        k(    2) = (   0.0000000   0.0000000   0.0611307), wk =   0.0185185
        k(    3) = (   0.0000000   0.0000000   0.1222613), wk =   0.0185185
        k(    4) = (   0.0000000   0.0000000  -0.1833920), wk =   0.0092593
        k(    5) = (   0.0000000   0.1924501   0.0000000), wk =   0.0555556
        k(    6) = (   0.0000000   0.1924501   0.0611307), wk =   0.1111111
        k(    7) = (   0.0000000   0.1924501   0.1222613), wk =   0.1111111
        k(    8) = (   0.0000000   0.1924501  -0.1833920), wk =   0.0555556
        k(    9) = (   0.0000000   0.3849002   0.0000000), wk =   0.0555556
        k(   10) = (   0.0000000   0.3849002   0.0611307), wk =   0.1111111
        k(   11) = (   0.0000000   0.3849002   0.1222613), wk =   0.1111111
        k(   12) = (   0.0000000   0.3849002  -0.1833920), wk =   0.0555556
        k(   13) = (   0.0000000  -0.5773503   0.0000000), wk =   0.0277778
        k(   14) = (   0.0000000  -0.5773503   0.0611307), wk =   0.0555556
        k(   15) = (   0.0000000  -0.5773503   0.1222613), wk =   0.0555556
        k(   16) = (   0.0000000  -0.5773503  -0.1833920), wk =   0.0277778
        k(   17) = (   0.1666667   0.2886751   0.0000000), wk =   0.0555556
        k(   18) = (   0.1666667   0.2886751   0.0611307), wk =   0.1111111
        k(   19) = (   0.1666667   0.2886751   0.1222613), wk =   0.1111111
        k(   20) = (   0.1666667   0.2886751  -0.1833920), wk =   0.0555556
        k(   21) = (   0.1666667   0.4811252   0.0000000), wk =   0.1111111
        k(   22) = (   0.1666667   0.4811252   0.0611307), wk =   0.2222222
        k(   23) = (   0.1666667   0.4811252   0.1222613), wk =   0.2222222
        k(   24) = (   0.1666667   0.4811252  -0.1833920), wk =   0.1111111
        k(   25) = (   0.3333333   0.5773503   0.0000000), wk =   0.0185185
        k(   26) = (   0.3333333   0.5773503   0.0611307), wk =   0.0370370
        k(   27) = (   0.3333333   0.5773503   0.1222613), wk =   0.0370370
        k(   28) = (   0.3333333   0.5773503  -0.1833920), wk =   0.0185185

     Check: negative core charge=   -0.000003

     Initial potential from superposition of free atoms

     starting charge   15.99983, renormalised to   16.00000

     %%%%%%%%%%%%%%%%%%%%%%%%%%%%%%%%%%%%%%%%%%%%%%%%%%%%%%%%%%%%%%%%%%%%%%%%
     %                                                                      %
     % You are using vdW-DF, which was implemented by the Thonhauser group. %
     % Please cite the following two papers that made this development      %
     % possible and the two reviews that describe the various versions:     %
     %                                                                      %
     %   T. Thonhauser et al., PRL 115, 136402 (2015).                      %
     %   T. Thonhauser et al., PRB 76, 125112 (2007).                       %
     %   K. Berland et al., Rep. Prog. Phys. 78, 066501 (2015).             %
     %   D.C. Langreth et al., J. Phys.: Condens. Matter 21, 084203 (2009). %
     %                                                                      %
     %                                                                      %
     % If you are calculating the stress with vdW-DF, please also cite:     %
     %                                                                      %
     %   R. Sabatini et al., J. Phys.: Condens. Matter 24, 424209 (2012).   %
     %                                                                      %
     %%%%%%%%%%%%%%%%%%%%%%%%%%%%%%%%%%%%%%%%%%%%%%%%%%%%%%%%%%%%%%%%%%%%%%%%

     Starting wfcs are   16 randomized atomic wfcs
     Checking if some PAW data can be deallocated...

     Self-consistent Calculation

     iteration #  1     ecut=    40.00 Ry     beta= 0.40
     Davidson diagonalization with overlap
     ethr =  1.00E-02,  avg # of iterations =  3.0

     total energy              =     -75.28608044 Ry
     Harris-Foulkes estimate   =     -75.46608850 Ry
     estimated scf accuracy    <       0.44657360 Ry

[...]

     End of self-consistent calculation

          k = 0.0000 0.0000 0.0000 (  1009 PWs)   bands (ev):

   -12.6393 -12.3395  -1.4556   0.5072   3.9783   3.9783   3.9948   3.9948
    11.4525  15.5927  15.5941  15.6431

[...]

     the Fermi energy is     7.0698 ev

!    total energy              =     -75.27962015 Ry
     Harris-Foulkes estimate   =     -75.27961979 Ry
     estimated scf accuracy    <       0.00000025 Ry

     total all-electron energy =      -306.395731 Ry

     The total energy is the sum of the following terms:

     one-electron contribution =     -10.15563678 Ry
     hartree contribution      =      13.62027699 Ry
     xc contribution           =     -19.15770533 Ry
     ewald contribution        =     -33.90913397 Ry
     one-center paw contrib.   =     -25.66047169 Ry
     smearing contrib. (-TS)   =      -0.01694937 Ry

     convergence has been achieved in   6 iterations

     Forces acting on atoms (cartesian axes, Ry/au):

     atom    1 type  1   force =    -0.00000000   -0.00000000    0.00000000
     atom    2 type  1   force =    -0.00000000    0.00000000    0.00000000
     atom    3 type  1   force =     0.00000000    0.00000000    0.00000000
     atom    4 type  1   force =     0.00000000    0.00000000    0.00000000

     Total force =     0.000000     Total SCF correction =     0.000000

     Computing stress (Cartesian axis) and pressure

          total   stress  (Ry/bohr**3)                   (kbar)     P=   74.41
   0.00070133   0.00000000   0.00000000        103.17      0.00      0.00
   0.00000000   0.00070133   0.00000000          0.00    103.17      0.00
  -0.00000000  -0.00000000   0.00011484         -0.00     -0.00     16.89

     BFGS Geometry Optimization

     number of scf cycles    =   1
     number of bfgs steps    =   0

     enthalpy new            =     -75.2796201542 Ry

     new trust radius        =       0.0538756034 bohr
     new conv_thr            =       0.0000010000 Ry

     new unit-cell volume =    245.10090 a.u.^3 (    36.32021 Ang^3 )
     density =      2.19654 g/cm^3

CELL_PARAMETERS (angstrom)
   2.499062913   0.000000000  -0.000000000
  -1.249531457   2.164251968  -0.000000000
   0.000000000   0.000000000   6.715267129

ATOMIC_POSITIONS (angstrom)
C       -0.000000000  -0.000000000   0.000000000
C        0.000000000   1.442834646  -0.000000000
C        0.000000000   0.000000000   3.357633565
C        1.249531457   0.721417323   3.357633565

     Writing output data file graph.save/
     NEW-OLD atomic charge density approx. for the potential

     Check: negative core charge=   -0.000003
     extrapolated charge   16.59088, renormalised to   16.00000

[...]

          k =-0.0000-0.0000-0.1829 (  1046 PWs)   bands (ev):

[...]

     enthalpy old            =     -75.2796201542 Ry
     enthalpy new            =     -75.2793860378 Ry

     CASE: enthalpy_new > enthalpy_old

[...]

     CASE: enthalpy_new < enthalpy_old

[...]

     WARNING: bfgs curvature condition failed, Theta= 0.786
     new trust radius        =       0.0117142819 bohr
     new conv_thr            =       0.0000000100 Ry

[...]

     number of scf cycles    =   7
     number of bfgs steps    =   5

     enthalpy old            =     -75.2812516997 Ry
     enthalpy new            =     -75.2813408487 Ry

     CASE: enthalpy_new < enthalpy_old

     new trust radius        =       0.0200482723 bohr
     new conv_thr            =       0.0000000100 Ry

     new unit-cell volume =    246.76319 a.u.^3 (    36.56653 Ang^3 )
     density =      2.18175 g/cm^3

[...]

ATOMIC_POSITIONS (angstrom)
C       -0.000000000   0.000000000   0.000000000
C        0.000000000   1.429607266  -0.000000000
C        0.000000000  -0.000000000   3.443248707
C        1.238076210   0.714803633   3.443248707

     Writing output data file graph.save/
     NEW-OLD atomic charge density approx. for the potential

     Check: negative core charge=   -0.000003
     extrapolated charge   16.10582, renormalised to   16.00000

[...]

     bfgs converged in   8 scf cycles and   6 bfgs steps
     (criteria: energy <  1.0E-04 Ry, force <  1.0E-02Ry/Bohr, cell <  5.0E-01kbar)

     End of BFGS Geometry Optimization

     Final enthalpy =     -75.2813622917 Ry
Begin final coordinates
     new unit-cell volume =    246.76319 a.u.^3 (    36.56653 Ang^3 )
     density =      2.18175 g/cm^3

CELL_PARAMETERS (angstrom)
   2.476152418   0.000000000  -0.000000000
  -1.238076209   2.144410897  -0.000000000
   0.000000000  -0.000000000   6.886497407

ATOMIC_POSITIONS (angstrom)
C       -0.000000000   0.000000000   0.000000000
C        0.000000000   1.429607266  -0.000000000
C        0.000000000  -0.000000000   3.443248707
C        1.238076210   0.714803633   3.443248707
End final coordinates

     Writing output data file graph.save/

     A final scf calculation at the relaxed structure.
     The G-vectors are recalculated for the final unit cell
     Results may differ from those at the preceding step.

     bravais-lattice index     =            0
     lattice parameter (alat)  =       4.6412  a.u.
     unit-cell volume          =     246.7632 (a.u.)^3
     number of atoms/cell      =            4
     number of atomic types    =            1
     number of electrons       =        16.00
     number of Kohn-Sham states=           12
     kinetic-energy cutoff     =      40.0000  Ry
     charge density cutoff     =     500.0000  Ry
     convergence threshold     =      1.0E-08
     mixing beta               =       0.4000
     number of iterations used =            8  plain     mixing
     Exchange-correlation      = VDW-DF ( 1  4  4  0 1 0)

     celldm(1)=   4.641170  celldm(2)=   0.000000  celldm(3)=   0.000000
     celldm(4)=   0.000000  celldm(5)=   0.000000  celldm(6)=   0.000000

     crystal axes: (cart. coord. in units of alat)
               a(1) = (   1.008205   0.000000  -0.000000 )
               a(2) = (  -0.504102   0.873131  -0.000000 )
               a(3) = (   0.000000  -0.000000   2.803947 )

     reciprocal axes: (cart. coord. in units 2 pi/alat)
               b(1) = (  0.991862  0.572652  0.000000 )
               b(2) = ( -0.000000  1.145304  0.000000 )
               b(3) = (  0.000000  0.000000  0.356640 )

     PseudoPot. # 1 for C  read from file:
     /home/mpicuntureo/pseudos/C.pbesol-n-kjpaw_psl.1.0.0.UPF
     MD5 check sum: f9b2fe17d1f478429498b05d17159f9e
     Pseudo is Projector augmented-wave + core cor, Zval =  4.0
     Generated using "atomic" code by A. Dal Corso v.6.3
     Shape of augmentation charge: PSQ
     Using radial grid of 1073 points,  4 beta functions with:
                l(1) =   0
                l(2) =   0
                l(3) =   1
                l(4) =   1
     Q(r) pseudized with 0 coefficients

     vdW kernel table read from file vdW_kernel_table
     MD5 check sum: 8c4337f4b28e1601c069d7ef7b6561bc

     atomic species   valence    mass     pseudopotential
        C              4.00    12.01100     C ( 1.00)

     24 Sym. Ops., with inversion, found (12 have fractional translation)

   Cartesian axes

     site n.     atom                  positions (alat units)
         1           C   tau(   1) = (  -0.0000000   0.0000000   0.0000000  )
         2           C   tau(   2) = (   0.0000000   0.5820873  -0.0000000  )
         3           C   tau(   3) = (   0.0000000  -0.0000000   1.4019734  )
         4           C   tau(   4) = (   0.5041024   0.2910437   1.4019734  )

     number of k points=    28  gaussian smearing, width (Ry)=  0.1000
                       cart. coord. in units 2pi/alat
        k(    1) = (   0.0000000   0.0000000   0.0000000), wk =   0.0092593
        k(    2) = (   0.0000000   0.0000000   0.0594400), wk =   0.0185185
        k(    3) = (   0.0000000   0.0000000   0.1188800), wk =   0.0185185
        k(    4) = (  -0.0000000  -0.0000000  -0.1783201), wk =   0.0092593
        k(    5) = (  -0.0000000   0.1908839   0.0000000), wk =   0.0555556
        k(    6) = (  -0.0000000   0.1908839   0.0594400), wk =   0.1111111
        k(    7) = (  -0.0000000   0.1908839   0.1188800), wk =   0.1111111
        k(    8) = (  -0.0000000   0.1908839  -0.1783201), wk =   0.0555556
        k(    9) = (  -0.0000000   0.3817678   0.0000000), wk =   0.0555556
        k(   10) = (  -0.0000000   0.3817678   0.0594400), wk =   0.1111111
        k(   11) = (  -0.0000000   0.3817678   0.1188800), wk =   0.1111111
        k(   12) = (  -0.0000000   0.3817678  -0.1783201), wk =   0.0555556
        k(   13) = (   0.0000000  -0.5726518  -0.0000000), wk =   0.0277778
        k(   14) = (   0.0000000  -0.5726518   0.0594400), wk =   0.0555556
        k(   15) = (   0.0000000  -0.5726518   0.1188800), wk =   0.0555556
        k(   16) = (   0.0000000  -0.5726518  -0.1783201), wk =   0.0277778
        k(   17) = (   0.1653103   0.2863259   0.0000000), wk =   0.0555556
        k(   18) = (   0.1653103   0.2863259   0.0594400), wk =   0.1111111
        k(   19) = (   0.1653103   0.2863259   0.1188800), wk =   0.1111111
        k(   20) = (   0.1653103   0.2863259  -0.1783201), wk =   0.0555556
        k(   21) = (   0.1653103   0.4772098   0.0000000), wk =   0.1111111
        k(   22) = (   0.1653103   0.4772098   0.0594400), wk =   0.2222222
        k(   23) = (   0.1653103   0.4772098   0.1188800), wk =   0.2222222
        k(   24) = (   0.1653103   0.4772098  -0.1783201), wk =   0.1111111
        k(   25) = (   0.3306207   0.5726518   0.0000000), wk =   0.0185185
        k(   26) = (   0.3306207   0.5726518   0.0594400), wk =   0.0370370
        k(   27) = (   0.3306207   0.5726518   0.1188800), wk =   0.0370370
        k(   28) = (   0.3306207   0.5726518  -0.1783201), wk =   0.0185185

     Check: negative core charge=   -0.000003

     Initial potential from superposition of free atoms

     starting charge   15.99983, renormalised to   16.00000
     Starting wfcs are   16 randomized atomic wfcs
     Checking if some PAW data can be deallocated...

     Self-consistent Calculation

     iteration #  1     ecut=    40.00 Ry     beta= 0.40
     Davidson diagonalization with overlap
     c_bands:  1 eigenvalues not converged
     c_bands:  1 eigenvalues not converged
     c_bands:  1 eigenvalues not converged
     ethr =  1.00E-06,  avg # of iterations = 11.4

[...]

     total energy              =     -75.28217020 Ry
     Harris-Foulkes estimate   =     -75.28217010 Ry
     estimated scf accuracy    <       0.00000054 Ry

     iteration #  7     ecut=    40.00 Ry     beta= 0.40
     Davidson diagonalization with overlap
     ethr =  3.39E-09,  avg # of iterations =  2.0

     End of self-consistent calculation

[...]

          k =-0.0000 0.3818-0.1783 (  1054 PWs)   bands (ev):

[...]

          k = 0.3306 0.5727-0.1783 (  1056 PWs)   bands (ev):

    -6.0020  -6.0020  -5.9984  -5.9984  -3.7763  -3.7763   6.5959   6.5959
     6.6081   6.6081  16.9381  16.9381

     the Fermi energy is     6.5704 ev

!    total energy              =     -75.28217034 Ry
     Harris-Foulkes estimate   =     -75.28217028 Ry
     estimated scf accuracy    <          9.4E-09 Ry

     total all-electron energy =      -306.398282 Ry

     The total energy is the sum of the following terms:

     one-electron contribution =     -12.10318507 Ry
     hartree contribution      =      14.30422355 Ry
     xc contribution           =     -19.08081806 Ry
     ewald contribution        =     -32.72767310 Ry
     one-center paw contrib.   =     -25.65734304 Ry
     smearing contrib. (-TS)   =      -0.01737462 Ry

     convergence has been achieved in   7 iterations

     Forces acting on atoms (cartesian axes, Ry/au):

     atom    1 type  1   force =     0.00000000   -0.00000000   -0.00000000
     atom    2 type  1   force =     0.00000000    0.00000000    0.00000000
     atom    3 type  1   force =    -0.00000000    0.00000000    0.00000000
     atom    4 type  1   force =     0.00000000    0.00000000    0.00000000

     Total force =     0.000000     Total SCF correction =     0.000000

     Computing stress (Cartesian axis) and pressure

          total   stress  (Ry/bohr**3)                   (kbar)     P=    3.53
   0.00001904   0.00000000  -0.00000000          2.80      0.00     -0.00
   0.00000000   0.00001904   0.00000000          0.00      2.80      0.00
   0.00000000   0.00000000   0.00003389          0.00      0.00      4.98

     Writing output data file graph.save/

     General routines

     Parallel routines

   This run was terminated on:  18:41:14  10Mar2024

   JOB DONE.