     Program PWSCF v.6.4.1 starts on 11Jun2024 at 23:59:11

     R & G space division:  proc/nbgrp/npool/nimage =      32
     Reading input from v16o39.rlx.in
Warning: card &CELL ignored
Warning: card     CELL_DYNAMICS  = "BFGS" ignored
Warning: card / ignored

     Current dimensions of program PWSCF are:
     Max number of different atomic species (ntypx) = 10
     Max number of k-points (npk) =  40000
     Max angular momentum in pseudopotentials (lmaxx) =  3
               file V.pbe-spnl-kjpaw_psl.1.0.0.UPF: wavefunction(s)  3P 3D renormalized
               file O.pbe-n-kjpaw_psl.1.0.0.UPF: wavefunction(s)  2S 2P renormalized

     Parameters for Dispersion (Grimme-D2) Correction:
       atom      VdW radius       C_6

        V          2.952        374.666
        O          2.536         24.284

     Subspace diagonalization in iterative solution of the eigenvalue problem:
     one sub-group per band group will be used

     bravais-lattice index     =            8
     lattice parameter (alat)  =      13.3968  a.u.
     unit-cell volume          =    4868.8223 (a.u.)^3
     number of atoms/cell      =           55
     number of atomic types    =            2
     number of electrons       =       442.00
     number of Kohn-Sham states=          265
     kinetic-energy cutoff     =      65.0000  Ry
     charge density cutoff     =     650.0000  Ry
     convergence threshold     =      1.0E-09
     mixing beta               =       0.7000
     number of iterations used =            8  plain     mixing
     Exchange-correlation      = SLA PW PBX PBC ( 1  4  3  4 0 0)
     nstep                     =          500

     celldm(1)=  13.396828  celldm(2)=   1.235512  celldm(3)=   1.638970
     celldm(4)=   0.000000  celldm(5)=   0.000000  celldm(6)=   0.000000

     crystal axes: (cart. coord. in units of alat)
               a(1) = (   1.000000   0.000000   0.000000 )
               a(2) = (   0.000000   1.235512   0.000000 )
               a(3) = (   0.000000   0.000000   1.638970 )

     reciprocal axes: (cart. coord. in units 2 pi/alat)
               b(1) = (  1.000000  0.000000  0.000000 )
               b(2) = (  0.000000  0.809381  0.000000 )
               b(3) = (  0.000000  0.000000  0.610139 )

     PseudoPot. # 1 for V  read from file:
     /home/mpicuntureo/pseudos/V.pbe-spnl-kjpaw_psl.1.0.0.UPF
     MD5 check sum: 069c5df6a0a9f40a694a86a6cab52b89
     Pseudo is Projector augmented-wave + core cor, Zval = 13.0
     Generated using "atomic" code by A. Dal Corso v.6.3
     Shape of augmentation charge: PSQ
     Using radial grid of 1181 points,  6 beta functions with:
                l(1) =   0
                l(2) =   0
                l(3) =   1
                l(4) =   1
                l(5) =   2
                l(6) =   2
     Q(r) pseudized with 0 coefficients

     PseudoPot. # 2 for O  read from file:
     /home/mpicuntureo/pseudos/O.pbe-n-kjpaw_psl.1.0.0.UPF
     MD5 check sum: e99d9cef9b487d1ca56f5b95ecd0fd7a
     Pseudo is Projector augmented-wave + core cor, Zval =  6.0
     Generated using "atomic" code by A. Dal Corso v.6.3
     Shape of augmentation charge: PSQ
     Using radial grid of 1095 points,  4 beta functions with:
                l(1) =   0
                l(2) =   0
                l(3) =   1
                l(4) =   1
     Q(r) pseudized with 0 coefficients

     atomic species   valence    mass     pseudopotential
        V             13.00    50.94150     V ( 1.00)
        O              6.00    15.99940     O ( 1.00)

      2 Sym. Ops. (no inversion) found ( 1 have fractional translation)

   Cartesian axes

     site n.     atom                  positions (alat units)
         1           V   tau(   1) = (  -0.0002819   0.2341828   1.0621568  )
         2           V   tau(   2) = (   0.2500000   0.3868258   1.3917869  )
         3           V   tau(   3) = (   0.2500000   0.3845179   0.2412087  )
         4           V   tau(   4) = (   0.0006942   0.2294971   0.5734394  )
         5           O   tau(   5) = (   0.2500000   0.3070304   1.1135387  )
         6           O   tau(   6) = (  -0.0008942   0.3154986   1.3414364  )
         7           O   tau(   7) = (  -0.0020579   0.3155892   0.2951228  )
         8           O   tau(   8) = (   0.2500000   0.2981857   0.5181751  )
         9           O   tau(   9) = (   0.0036570   0.0035916   0.5714802  )
        10           O   tau(  10) = (   0.2500000   0.6098541   0.2449647  )
        11           O   tau(  11) = (   0.2500000   0.6116232   1.3884701  )
        12           O   tau(  12) = (   0.2500000   0.3261385  -0.0022530  )
        13           O   tau(  13) = (  -0.0000835   0.2921028   0.8167127  )
        14           O   tau(  14) = (  -0.0001274   0.0091285   1.0658712  )
        15           V   tau(  15) = (  -0.0007787   0.8630419   1.0592969  )
        16           V   tau(  16) = (   0.2500000   1.0008739   1.3842294  )
        17           V   tau(  17) = (   0.2500000   0.9978789   0.2191918  )
        18           V   tau(  18) = (  -0.0046766   0.8503836   0.5853435  )
        19           O   tau(  19) = (   0.2500000   0.9282697   1.1175604  )
        20           O   tau(  20) = (  -0.0026724   0.9288401   1.3399866  )
        21           O   tau(  21) = (   0.0222580   0.9292678   0.3237747  )
        22           O   tau(  22) = (   0.0280359   0.6281625   0.5912113  )
        23           O   tau(  23) = (   0.2500000   1.2232236   0.2148753  )
        24           O   tau(  24) = (   0.2500000   1.2246655   1.4007264  )
        25           O   tau(  25) = (   0.2500000   0.9208711  -0.0107340  )
        26           O   tau(  26) = (   0.0337471   0.9343406   0.8137731  )
        27           O   tau(  27) = (  -0.0049604   0.6389674   1.0478108  )
        28           V   tau(  28) = (   0.5002819   0.2341828   1.0621568  )
        29           V   tau(  29) = (   0.7500000   0.3892220   1.3937953  )
        30           V   tau(  30) = (   0.7500000   0.3935469   0.2460214  )
        31           V   tau(  31) = (   0.4993058   0.2294971   0.5734394  )
        32           O   tau(  32) = (   0.7500000   0.3068029   1.1142991  )
        33           O   tau(  33) = (   0.5008942   0.3154986   1.3414364  )
        34           O   tau(  34) = (   0.5020579   0.3155892   0.2951228  )
        35           O   tau(  35) = (   0.7500000   0.3027980   0.5219136  )
        36           O   tau(  36) = (   0.4963430   0.0035916   0.5714802  )
        37           O   tau(  37) = (   0.7500000   0.6209939   0.2560209  )
        38           O   tau(  38) = (   0.7500000   0.6143564   1.3883302  )
        39           O   tau(  39) = (   0.7500000   0.3342265   0.0023593  )
        40           O   tau(  40) = (   0.5000835   0.2921028   0.8167127  )
        41           O   tau(  41) = (   0.5001274   0.0091285   1.0658712  )
        42           V   tau(  42) = (   0.5007787   0.8630419   1.0592969  )
        43           V   tau(  43) = (   0.7500000   0.9949050   1.4001854  )
        44           V   tau(  44) = (   0.7500000   0.9753742   0.2514903  )
        45           V   tau(  45) = (   0.5046766   0.8503836   0.5853435  )
        46           O   tau(  46) = (   0.7500000   0.9355152   1.1010705  )
        47           O   tau(  47) = (   0.5026724   0.9288401   1.3399866  )
        48           O   tau(  48) = (   0.4777420   0.9292678   0.3237747  )
        49           O   tau(  49) = (   0.7500000   0.8976842   0.5428585  )
        50           O   tau(  50) = (   0.4719641   0.6281625   0.5912113  )
        51           O   tau(  51) = (   0.7500000   1.1989640   0.2525337  )
        52           O   tau(  52) = (   0.7500000   1.2187811   1.4136153  )
        53           O   tau(  53) = (   0.7500000   0.9236815   0.0096299  )
        54           O   tau(  54) = (   0.4662529   0.9343406   0.8137731  )
        55           O   tau(  55) = (   0.5049604   0.6389674   1.0478108  )

     number of k points=     8  gaussian smearing, width (Ry)=  0.0500
                       cart. coord. in units 2pi/alat
        k(    1) = (   0.0000000   0.0000000   0.0000000), wk =   0.2500000
        k(    2) = (   0.0000000   0.0000000  -0.3050697), wk =   0.2500000
        k(    3) = (   0.0000000  -0.4046905   0.0000000), wk =   0.2500000
        k(    4) = (   0.0000000  -0.4046905  -0.3050697), wk =   0.2500000
        k(    5) = (  -0.5000000   0.0000000   0.0000000), wk =   0.2500000
        k(    6) = (  -0.5000000   0.0000000  -0.3050697), wk =   0.2500000
        k(    7) = (  -0.5000000  -0.4046905   0.0000000), wk =   0.2500000
        k(    8) = (  -0.5000000  -0.4046905  -0.3050697), wk =   0.2500000

     Check: negative core charge=   -0.000001

     Initial potential from superposition of free atoms

     starting charge  441.98541, renormalised to  442.00000
     Starting wfcs are  316 randomized atomic wfcs
     Checking if some PAW data can be deallocated...

     Self-consistent Calculation

     iteration #  1     ecut=    65.00 Ry     beta= 0.70
     Davidson diagonalization with overlap
     ethr =  1.00E-02,  avg # of iterations =  2.0

     total energy              =   -5031.97266563 Ry
     Harris-Foulkes estimate   =   -5058.32350008 Ry
     estimated scf accuracy    <      32.49992905 Ry

[...]

     negative rho (up, down):  8.470E-07 0.000E+00

[...]

     iteration # 14     ecut=    65.00 Ry     beta= 0.70
     Davidson diagonalization with overlap
     c_bands:  1 eigenvalues not converged
     c_bands:  3 eigenvalues not converged
     c_bands:  3 eigenvalues not converged
     c_bands:  5 eigenvalues not converged
     ethr =  2.64E-05,  avg # of iterations = 16.5

[...]

     total energy              =   -5053.45852283 Ry
     Harris-Foulkes estimate   =   -5053.45852283 Ry
     estimated scf accuracy    <          4.5E-09 Ry

     iteration # 41     ecut=    65.00 Ry     beta= 0.70
     Davidson diagonalization with overlap
     ethr =  3.45E-13,  avg # of iterations =  6.1

[...]

     End of self-consistent calculation

          k = 0.0000 0.0000 0.0000 ( 43117 PWs)   bands (ev):

   -60.0275 -59.8068 -59.8019 -59.7995 -59.7971 -59.7927 -59.7832 -59.7758
   -59.7634 -59.7047 -59.7019 -59.6945 -59.6851 -59.6741 -59.6718 -59.6533
   -34.0991 -33.9217 -33.8625 -33.8567 -33.8470 -33.8335 -33.8318 -33.8222
   -33.8112 -33.7893 -33.7776 -33.7551 -33.7494 -33.7263 -33.7236 -33.7202
   -33.7197 -33.7097 -33.7028 -33.6981 -33.6961 -33.6857 -33.6797 -33.6764
   -33.6450 -33.6441 -33.6438 -33.6201 -33.6165 -33.6082 -33.6050 -33.6016
   -33.5930 -33.5899 -33.5727 -33.5718 -33.5684 -33.5554 -33.5414 -33.5410
   -33.5212 -33.5046 -33.4902 -33.4891 -33.4783 -33.4718 -33.4703 -33.4432
   -13.6624 -13.4150 -13.2585 -13.1328 -13.0313 -12.9366 -12.5363 -12.5201
   -12.4637 -12.3372 -12.3217 -12.3060 -12.3055 -12.2406 -12.2080 -12.2075
   -12.1684 -12.1529 -12.0913 -12.0244 -11.9931 -11.9346 -11.9282 -11.9266
   -11.8280 -11.7220 -11.7192 -11.7145 -11.6871 -11.6474 -11.6455 -11.6131
   -11.5572 -11.5429 -11.5271 -11.5116 -11.5029 -11.5013 -11.4535  -0.9186
    -0.9095  -0.5222  -0.5026  -0.3395  -0.3262  -0.2969  -0.2314  -0.2040
    -0.1602  -0.1538  -0.1350  -0.1261  -0.0890  -0.0865  -0.0781   0.0003
     0.0036   0.0467   0.0907   0.2024   0.2224   0.3132   0.3226   0.3590
     0.3758   0.4339   0.5031   0.5245   0.5544   0.6217   0.6476   0.6729
     0.6839   0.7610   0.7820   0.9294   1.0550   1.0674   1.1918   1.2080
     1.2287   1.2798   1.2805   1.3071   1.3621   1.3966   1.4256   1.4784
     1.4799   1.4974   1.6001   1.6219   1.6474   1.6831   1.7489   1.7638
     1.8129   1.8294   1.8878   1.9183   1.9349   1.9514   1.9941   2.0644
     2.0649   2.1271   2.1697   2.1728   2.2495   2.2805   2.3357   2.3474
     2.3751   2.3946   2.4030   2.4374   2.4673   2.4945   2.5375   2.5513
     2.5896   2.6092   2.6712   2.7194   2.7919   2.8329   2.8636   2.8937
     2.9152   2.9541   2.9800   3.0135   3.0692   3.1349   3.1967   3.1981
     3.2673   3.2719   3.3190   3.3218   3.3369   3.3480   3.3947   3.4274
     3.4754   3.5147   3.5362   3.7497   3.8003   3.8613   3.8922   3.9485
     3.9544   4.0038   4.1016   4.1266   6.0556   6.0809   6.1721   6.1873
     6.2817   6.4226   6.5657   6.5835   6.5901   6.6260   7.0285   7.0745
     7.2902   7.3060   7.3255   7.3575   7.4446   7.4687   7.5582   7.5622
     7.6044   7.6187   7.6665   7.7078   7.7080   7.7503   7.8289   7.8372
     7.8438   7.8770   7.8978   7.9012   7.9632   8.0574   8.1972   8.2090
     8.2563   8.2713   8.2738   8.3054   8.3504   8.3596   8.4272   8.4758
     8.5428

[...]

          k = 0.0000-0.4047-0.3051 ( 43112 PWs)   bands (ev):

[...]

          k =-0.5000 0.0000 0.0000 ( 43106 PWs)   bands (ev):

[...]

          k =-0.5000-0.4047-0.3051 ( 43072 PWs)   bands (ev):

   -60.0275 -59.8052 -59.8037 -59.7988 -59.7980 -59.7925 -59.7832 -59.7758
   -59.7634 -59.7038 -59.7028 -59.6944 -59.6851 -59.6736 -59.6723 -59.6532
   -34.0990 -33.9207 -33.8635 -33.8555 -33.8431 -33.8413 -33.8286 -33.8211
   -33.8091 -33.7893 -33.7768 -33.7503 -33.7460 -33.7241 -33.7237 -33.7228
   -33.7221 -33.7093 -33.7017 -33.7000 -33.6871 -33.6852 -33.6797 -33.6595
   -33.6573 -33.6525 -33.6416 -33.6226 -33.6102 -33.6061 -33.6007 -33.5972
   -33.5882 -33.5849 -33.5848 -33.5836 -33.5692 -33.5546 -33.5298 -33.5268
   -33.5232 -33.5171 -33.5024 -33.4878 -33.4803 -33.4786 -33.4646 -33.4596
   -13.5912 -13.1442 -13.1369 -12.9889 -12.8912 -12.8895 -12.8749 -12.8409
   -12.8386 -12.4444 -12.3655 -12.3604 -12.2905 -12.2424 -12.1877 -12.0496
   -12.0355 -12.0355 -12.0280 -12.0128 -11.9885 -11.9867 -11.9661 -11.9333
   -11.8102 -11.7497 -11.6873 -11.6862 -11.6671 -11.6622 -11.6553 -11.6295
   -11.5450 -11.5446 -11.5352 -11.5211 -11.5101 -11.5043 -11.4822  -1.0418
    -0.8582  -0.7681  -0.6782  -0.5821  -0.5711  -0.5251  -0.5206  -0.2064
    -0.1734  -0.0864  -0.0666   0.0716   0.0833   0.0950   0.0981   0.1055
     0.1628   0.2417   0.2819   0.3794   0.4146   0.4168   0.4446   0.4907
     0.5035   0.5235   0.5431   0.5980   0.6552   0.6833   0.7340   0.7618
     0.7752   0.7979   0.8414   0.8909   0.9137   0.9577   0.9753   0.9898
     1.0140   1.0213   1.0414   1.1347   1.1427   1.1439   1.2321   1.3231
     1.4913   1.5175   1.6150   1.6368   1.6812   1.7082   1.7108   1.7303
     1.7608   1.8732   1.9161   2.0123   2.0581   2.0648   2.0806   2.0896
     2.1110   2.1481   2.1687   2.1870   2.2097   2.2207   2.2452   2.2622
     2.2710   2.3158   2.3654   2.3875   2.4000   2.4087   2.4428   2.6053
     2.6231   2.6986   2.7214   2.7489   2.7547   2.8117   2.8378   2.9424
     3.0227   3.0351   3.0946   3.1254   3.1393   3.1483   3.1666   3.2736
     3.3714   3.4217   3.4433   3.4892   3.5143   3.5898   3.6076   3.6199
     3.6280   3.6504   3.6803   3.6832   3.7653   3.8001   3.8135   3.8387
     3.9253   3.9298   3.9431   3.9444   5.8055   6.2245   6.3332   6.3776
     6.4984   6.5188   6.5230   6.5329   6.5795   6.9574   7.0609   7.2231
     7.2789   7.3512   7.4468   7.4614   7.4762   7.5003   7.5015   7.5180
     7.6178   7.6279   7.6562   7.6813   7.7066   7.7146   7.7800   7.7990
     7.8360   7.8639   7.9058   7.9118   7.9215   7.9568   7.9591   7.9964
     8.0548   8.0687   8.0837   8.0953   8.1283   8.1319   8.1816   8.2218
     8.2222

     the Fermi energy is     5.6972 ev

!    total energy              =   -5053.45852283 Ry
     Harris-Foulkes estimate   =   -5053.45852283 Ry
     estimated scf accuracy    <          2.6E-10 Ry

     total all-electron energy =    -36252.027302 Ry

     The total energy is the sum of the following terms:

     one-electron contribution =   -2294.39762377 Ry
     hartree contribution      =    1318.08244348 Ry
     xc contribution           =    -612.25184338 Ry
     ewald contribution        =   -1972.33580663 Ry
     Dispersion Correction     =      -0.51877761 Ry
     one-center paw contrib.   =   -1491.92695725 Ry
     smearing contrib. (-TS)   =      -0.10995767 Ry

     convergence has been achieved in  41 iterations

     negative rho (up, down):  1.600E-03 0.000E+00

     Forces acting on atoms (cartesian axes, Ry/au):

     atom    1 type  1   force =    -0.00001256   -0.00000425    0.00000953
     atom    2 type  1   force =     0.00000000   -0.00007395    0.00001748
     atom    3 type  1   force =     0.00000000   -0.00000102    0.00002003
     atom    4 type  1   force =     0.00001000    0.00002105   -0.00000004
     atom    5 type  2   force =     0.00000000   -0.00005967    0.00003649
     atom    6 type  2   force =    -0.00001898    0.00000782   -0.00000969
     atom    7 type  2   force =     0.00000193   -0.00003004   -0.00002506
     atom    8 type  2   force =     0.00000000    0.00001681   -0.00002625
     atom    9 type  2   force =     0.00002399    0.00001475    0.00000376
     atom   10 type  2   force =     0.00000000    0.00002546   -0.00000241
     atom   11 type  2   force =     0.00000000   -0.00000171    0.00001808
     atom   12 type  2   force =     0.00000000    0.00002628    0.00001593
     atom   13 type  2   force =     0.00001707    0.00000129   -0.00000009
     atom   14 type  2   force =    -0.00003716    0.00000066    0.00000505
     atom   15 type  1   force =    -0.00001473    0.00001471   -0.00000907
     atom   16 type  1   force =     0.00000000    0.00001800   -0.00007854
     atom   17 type  1   force =     0.00000000   -0.00001999   -0.00000684
     atom   18 type  1   force =    -0.00005030    0.00001618    0.00000890
     atom   19 type  2   force =     0.00000000   -0.00002998   -0.00007633
     atom   20 type  2   force =     0.00001798    0.00000408    0.00000525
     atom   21 type  2   force =    -0.00002970   -0.00002421    0.00007183
     atom   22 type  2   force =    -0.00001748   -0.00000059    0.00001196
     atom   23 type  2   force =     0.00000000    0.00002853    0.00001029
     atom   24 type  2   force =     0.00000000    0.00005183    0.00002501
     atom   25 type  2   force =     0.00000000   -0.00000581    0.00000096
     atom   26 type  2   force =    -0.00001296   -0.00001806    0.00000038
     atom   27 type  2   force =     0.00001564    0.00000877    0.00002844
     atom   28 type  1   force =     0.00001256   -0.00000425    0.00000953
     atom   29 type  1   force =     0.00000000    0.00003653    0.00001820
     atom   30 type  1   force =     0.00000000   -0.00000683    0.00002407
     atom   31 type  1   force =    -0.00001000    0.00002105   -0.00000004
     atom   32 type  2   force =     0.00000000   -0.00002319    0.00001570
     atom   33 type  2   force =     0.00001898    0.00000782   -0.00000969
     atom   34 type  2   force =    -0.00000193   -0.00003004   -0.00002506
     atom   35 type  2   force =     0.00000000   -0.00002747   -0.00003237
     atom   36 type  2   force =    -0.00002399    0.00001475    0.00000376
     atom   37 type  2   force =     0.00000000   -0.00002582    0.00003978
     atom   38 type  2   force =     0.00000000    0.00002372   -0.00004183
     atom   39 type  2   force =     0.00000000    0.00002493    0.00000005
     atom   40 type  2   force =    -0.00001707    0.00000129   -0.00000009
     atom   41 type  2   force =     0.00003716    0.00000066    0.00000505
     atom   42 type  1   force =     0.00001473    0.00001471   -0.00000907
     atom   43 type  1   force =     0.00000000    0.00000525   -0.00004351
     atom   44 type  1   force =     0.00000000    0.00000016   -0.00003892
     atom   45 type  1   force =     0.00005030    0.00001618    0.00000890
     atom   46 type  2   force =     0.00000000    0.00002267   -0.00004409
     atom   47 type  2   force =    -0.00001798    0.00000408    0.00000525
     atom   48 type  2   force =     0.00002970   -0.00002421    0.00007183
     atom   49 type  2   force =     0.00000000   -0.00002190   -0.00001899
     atom   50 type  2   force =     0.00001748   -0.00000059    0.00001196
     atom   51 type  2   force =     0.00000000    0.00002664   -0.00000304
     atom   52 type  2   force =     0.00000000   -0.00002139   -0.00001691
     atom   53 type  2   force =     0.00000000   -0.00001241   -0.00001430
     atom   54 type  2   force =     0.00001296   -0.00001806    0.00000038
     atom   55 type  2   force =    -0.00001564    0.00000877    0.00002844

     Total force =     0.000294     Total SCF correction =     0.000054
     SCF correction compared to forces is large: reduce conv_thr to get better values

     BFGS Geometry Optimization

     bfgs converged in   1 scf cycles and   0 bfgs steps
     (criteria: energy <  1.0E-04 Ry, force <  1.0E-04 Ry/Bohr)

     End of BFGS Geometry Optimization

     Final energy   =   -5053.4585228322 Ry
Begin final coordinates

ATOMIC_POSITIONS (angstrom)
V       -0.001998557   1.660190970   7.529944035
V        1.772323984   2.742322719   9.866789453
V        1.772323984   2.725961323   1.709999938
V        0.004921588   1.626973186   4.065281307
O        1.772323984   2.176629246   7.894205063
O       -0.006339071   2.236663173   9.509839893
O       -0.014589131   2.237305113   2.092213096
O        1.772323984   2.113926563   3.673496788
O        0.025925432   0.025461780   4.051392489
O        1.772323984   4.323435943   1.736627406
O        1.772323984   4.335977595   9.843275451
O        1.772323984   2.312092411  -0.015972345
O       -0.000592081   2.070803027   5.789917837
O       -0.000902859   0.064714742   7.556276030
V       -0.005520141   6.118359223   7.509669052
V        1.772323984   7.095491589   9.813212043
V        1.772323984   7.074258531   1.553915861
V       -0.033154154   6.028620904   4.149673069
O        1.772323984   6.580778863   7.922716203
O       -0.018945357   6.584822005   9.499561181
O        0.157793310   6.587854153   2.295334775
O        0.198754479   4.453230157   4.191272141
O        1.772323984   8.671794119   1.523314355
O        1.772323984   8.682015972   9.930163715
O        1.772323984   6.528327717  -0.076096710
O        0.239243248   6.623817317   5.769078660
O       -0.035165451   4.529829220   7.428241038
V        3.546646512   1.660190970   7.529944035
V        5.316971939   2.759310235   9.881027439
V        5.316971939   2.789970717   1.744118303
V        3.539726367   1.626973186   4.065281307
O        5.316971939   2.175016562   7.899596334
O        3.550987026   2.236663173   9.509839893
O        3.559237085   2.237305113   2.092213096
O        5.316971939   2.146624288   3.699999800
O        3.518722524   0.025461780   4.051392489
O        5.316971939   4.402409230   1.815007910
O        5.316971939   4.355354106   9.842283718
O        5.316971939   2.369430724   0.016725814
O        3.545240033   2.070803027   5.789917837
O        3.545550814   0.064714742   7.556276030
V        3.550168096   6.118359223   7.509669052
V        5.316971939   7.053176024   9.926328814
V        5.316971939   6.914716056   1.782889105
V        3.577802108   6.028620904   4.149673069
O        5.316971939   6.632144052   7.805814705
O        3.563593310   6.584822005   9.499561181
O        3.386854645   6.587854153   2.295334775
O        5.316971939   6.363948868   3.848484302
O        3.345893475   4.453230157   4.191272141
O        5.316971939   8.499810289   1.790286221
O        5.316971939   8.640299662  10.021537213
O        5.316971939   6.548251774   0.068268867
O        3.305404706   6.623817317   5.769078660
O        3.579813406   4.529829220   7.428241038
End final coordinates

     Writing output data file v16o39.save/

     General routines

     Parallel routines

   This run was terminated on:   3: 3:51  12Jun2024

   JOB DONE.