     Program PWSCF v.6.5 starts on 20Feb2021 at 11:18:54

     R & G space division:  proc/nbgrp/npool/nimage =      20
     Reading input from v2o5.vc.in

     Current dimensions of program PWSCF are:
     Max number of different atomic species (ntypx) = 10
     Max number of k-points (npk) =  40000
     Max angular momentum in pseudopotentials (lmaxx) =  3
               file V.pbesol-spnl-kjpaw_psl.1.0.0.UPF: wavefunction(s)  3P 3D renormalized
               file O.pbesol-n-kjpaw_psl.1.0.0.UPF: wavefunction(s)  2S 2P renormalized

     Subspace diagonalization in iterative solution of the eigenvalue problem:
     a serial algorithm will be used

     Message from routine setup:
     using ibrav=0 with symmetry is DISCOURAGED, use correct ibrav instead

     bravais-lattice index     =            0
     lattice parameter (alat)  =       6.8383  a.u.
     unit-cell volume          =    1353.2532 (a.u.)^3
     number of atoms/cell      =           14
     number of atomic types    =            2
     number of electrons       =       112.00
     number of Kohn-Sham states=           67
     kinetic-energy cutoff     =      65.0000  Ry
     charge density cutoff     =     650.0000  Ry
     convergence threshold     =      1.0E-10
     mixing beta               =       0.2000
     number of iterations used =            8  local-TF  mixing
     Exchange-correlation= SLA PW PSX PSC
                           (   1   4  10   8   0   0   0)
     nstep                     =          500

     celldm(1)=   6.838273  celldm(2)=   0.000000  celldm(3)=   0.000000
     celldm(4)=   0.000000  celldm(5)=   0.000000  celldm(6)=   0.000000

     crystal axes: (cart. coord. in units of alat)
               a(1) = (   1.000000   0.000000   0.000000 )
               a(2) = (   0.000000   1.325711   0.000000 )
               a(3) = (   0.000000   0.000000   3.192208 )

     reciprocal axes: (cart. coord. in units 2 pi/alat)
               b(1) = (  1.000000  0.000000  0.000000 )
               b(2) = (  0.000000  0.754312  0.000000 )
               b(3) = (  0.000000  0.000000  0.313263 )

     PseudoPot. # 1 for V  read from file:
     ~/pseudos/V.pbesol-spnl-kjpaw_psl.1.0.0.UPF
     MD5 check sum: Not computed, couldn't open file
     Pseudo is Projector augmented-wave + core cor, Zval = 13.0
     Generated using "atomic" code by A. Dal Corso v.6.3
     Shape of augmentation charge: PSQ
     Using radial grid of 1181 points,  6 beta functions with:
                l(1) =   0
                l(2) =   0
                l(3) =   1
                l(4) =   1
                l(5) =   2
                l(6) =   2
     Q(r) pseudized with 0 coefficients

     PseudoPot. # 2 for O  read from file:
     ~/pseudos/O.pbesol-n-kjpaw_psl.1.0.0.UPF
     MD5 check sum: Not computed, couldn't open file
     Pseudo is Projector augmented-wave + core cor, Zval =  6.0
     Generated using "atomic" code by A. Dal Corso v.6.3
     Shape of augmentation charge: PSQ
     Using radial grid of 1095 points,  4 beta functions with:
                l(1) =   0
                l(2) =   0
                l(3) =   1
                l(4) =   1
     Q(r) pseudized with 0 coefficients

     atomic species   valence    mass     pseudopotential
        V             13.00    50.94150     V ( 1.00)
        O              6.00    15.99940     O ( 1.00)

      8 Sym. Ops., with inversion, found ( 4 have fractional translation)

   Cartesian axes

     site n.     atom                  positions (alat units)
         1           V   tau(   1) = (   0.0000000   0.5147296   2.0733261  )
         2           V   tau(   2) = (   0.5000000   0.8109809   2.7149854  )
         3           V   tau(   3) = (   0.5000000   0.8109809   0.4772223  )
         4           V   tau(   4) = (   0.0000000   0.5147296   1.1188816  )
         5           O   tau(   5) = (   0.5000000   0.6473219   2.1765621  )
         6           O   tau(   6) = (   0.0000000   0.6783886   2.6117494  )
         7           O   tau(   7) = (   0.0000000   0.6783886   0.5804583  )
         8           O   tau(   8) = (   0.5000000   0.6473219   1.0156456  )
         9           O   tau(   9) = (   0.0000000   0.0700863   1.1331571  )
        10           O   tau(  10) = (   0.5000000   1.2556242   0.4629467  )
        11           O   tau(  11) = (   0.5000000   1.2556242   2.7292610  )
        12           O   tau(  12) = (   0.5000000   0.6645389   0.0000000  )
        13           O   tau(  13) = (   0.0000000   0.6611716   1.5961039  )
        14           O   tau(  14) = (   0.0000000   0.0700863   2.0590506  )

     number of k points=     4  Gaussian smearing, width (Ry)=  0.0200
                       cart. coord. in units 2pi/alat
        k(    1) = (   0.0000000   0.0000000   0.0000000), wk =   0.2222222
        k(    2) = (   0.0000000   0.2514375   0.0000000), wk =   0.4444444
        k(    3) = (   0.3333333   0.0000000   0.0000000), wk =   0.4444444
        k(    4) = (   0.3333333   0.2514375   0.0000000), wk =   0.8888889

     Check: negative core charge=   -0.000001

     Initial potential from superposition of free atoms

     starting charge  111.99661, renormalised to  112.00000
     Starting wfcs are   80 randomized atomic wfcs
     Checking if some PAW data can be deallocated...

     Self-consistent Calculation

     iteration #  1     ecut=    65.00 Ry     beta= 0.20
     Davidson diagonalization with overlap
     ethr =  1.00E-02,  avg # of iterations =  2.0

     total energy              =   -1260.54440349 Ry
     Harris-Foulkes estimate   =   -1261.69815959 Ry
     estimated scf accuracy    <       8.38069751 Ry

[...]

     negative rho (up, down):  1.295E-04 0.000E+00

[...]

     End of self-consistent calculation

          k = 0.0000 0.0000 0.0000 ( 11963 PWs)   bands (ev):

   -60.9236 -60.9218 -60.9128 -60.9110 -34.9971 -34.9936 -34.9851 -34.9785
   -34.9493 -34.9031 -34.8759 -34.8640 -34.8619 -34.8321 -34.8286 -34.8263
   -14.5456 -14.4316 -13.4595 -13.3603 -13.2790 -13.2237 -12.8023 -12.7920
   -12.6478 -12.6465  -1.5374  -1.5288  -1.3207  -1.2864  -1.1031  -0.7534
    -0.1349   0.1189   0.2392   0.2400   0.5312   0.6113   0.7192   0.7350
     0.8362   0.8382   1.0046   1.1472   1.1742   1.2697   1.2818   1.3390
     1.5861   1.6698   1.9673   1.9948   2.0489   2.1821   2.2806   2.3589
     4.5683   4.7406   5.9450   6.0744   6.1654   6.2676   6.4716   6.7987
     6.8365   7.1481   7.1519

[...]

     the Fermi energy is     3.6273 ev

!    total energy              =   -1260.51078724 Ry
     Harris-Foulkes estimate   =   -1260.51078723 Ry
     estimated scf accuracy    <          9.2E-11 Ry

     total all-electron energy =     -9087.650722 Ry

     The total energy is the sum of the following terms:

     one-electron contribution =    -642.73317080 Ry
     hartree contribution      =     359.46852769 Ry
     xc contribution           =    -152.53818512 Ry
     ewald contribution        =    -460.83049376 Ry
     one-center paw contrib.   =    -363.87746521 Ry
     smearing contrib. (-TS)   =      -0.00000003 Ry

     convergence has been achieved in  35 iterations

[...]

     Forces acting on atoms (cartesian axes, Ry/au):

     atom    1 type  1   force =     0.00000000   -0.03355861   -0.00826843
     atom    2 type  1   force =     0.00000000    0.03355861    0.00826843
     atom    3 type  1   force =     0.00000000    0.03355861   -0.00826843
     atom    4 type  1   force =     0.00000000   -0.03355861    0.00826843
     atom    5 type  2   force =     0.00000000   -0.00633812    0.00536313
     atom    6 type  2   force =     0.00000000    0.00633812   -0.00536313
     atom    7 type  2   force =     0.00000000    0.00633812    0.00536313
     atom    8 type  2   force =     0.00000000   -0.00633812   -0.00536313
     atom    9 type  2   force =     0.00000000    0.05555167   -0.00248165
     atom   10 type  2   force =     0.00000000   -0.05555167    0.00248165
     atom   11 type  2   force =     0.00000000   -0.05555167   -0.00248165
     atom   12 type  2   force =     0.00000000    0.01644835    0.00000000
     atom   13 type  2   force =     0.00000000   -0.01644835    0.00000000
     atom   14 type  2   force =     0.00000000    0.05555167    0.00248165

     Total force =     0.134028     Total SCF correction =     0.000012

     Computing stress (Cartesian axis) and pressure

     negative rho (up, down):  6.509E-04 0.000E+00
          total   stress  (Ry/bohr**3)                   (kbar)     P=      -86.28
  -0.00053029   0.00000000   0.00000000          -78.01        0.00        0.00
   0.00000000  -0.00069880   0.00000000            0.00     -102.80        0.00
   0.00000000   0.00000000  -0.00053055            0.00        0.00      -78.05

     BFGS Geometry Optimization

     number of scf cycles    =   1
     number of bfgs steps    =   0

     enthalpy new            =   -1260.5107872385 Ry

     new trust radius        =       0.1285318188 bohr
     new conv_thr            =            1.0E-10 Ry

     new unit-cell volume =   1294.58330 a.u.^3 (   191.83745 Ang^3 )
     density =      3.14870 g/cm^3

CELL_PARAMETERS (angstrom)
   3.570684532   0.000000000   0.000000000
   0.000000000   4.713484635   0.000000000
   0.000000000   0.000000000  11.398292945

ATOMIC_POSITIONS (crystal)
V             0.0000000000        0.3845652358        0.6491172219
V             0.5000000006        0.6154347654        0.8508827799
V             0.5000000006        0.6154347654        0.1491172213
V             0.0000000000        0.3845652358        0.3508827793
O             0.5000000006        0.4875838587        0.6820816869
O             0.0000000000        0.5124161424        0.8179183149
O             0.0000000000        0.5124161424        0.1820816863
O             0.5000000006        0.4875838587        0.3179183143
O             0.0000000000        0.0589947633        0.3548623155
O             0.5000000006        0.9410052378        0.1451376851
O             0.5000000006        0.9410052378        0.8548623161
O             0.5000000006        0.5030843762        0.0000000000
O             0.0000000000        0.4969156250        0.5000000006
O             0.0000000000        0.0589947633        0.6451376857

     Writing output data file ./v2o5.save/
     NEW-OLD atomic charge density approx. for the potential

     negative rho (up, down):  1.313E-03 0.000E+00
     extrapolated charge  106.92436, renormalised to  112.00000

[...]

     iteration #  1     ecut=    65.00 Ry     beta= 0.20
     Davidson diagonalization with overlap
     c_bands:  3 eigenvalues not converged
     c_bands:  3 eigenvalues not converged
     ethr =  1.00E-06,  avg # of iterations = 17.0

[...]

     enthalpy old            =   -1260.5107872385 Ry
     enthalpy new            =   -1260.5143878198 Ry

     CASE: enthalpy_new < enthalpy_old

[...]

     Threshold (ethr) on eigenvalues was too large:
     Diagonalizing with lowered threshold

     Davidson diagonalization with overlap
     ethr =  9.28E-08,  avg # of iterations =  1.0

[...]

     number of scf cycles    =  25
     number of bfgs steps    =  24

     enthalpy old            =   -1260.5397299140 Ry
     enthalpy new            =   -1260.5397429692 Ry

     CASE: enthalpy_new < enthalpy_old

     new trust radius        =       0.0026734933 bohr
     new conv_thr            =            1.0E-12 Ry

     new unit-cell volume =   1194.86996 a.u.^3 (   177.06146 Ang^3 )
     density =      3.41146 g/cm^3

[...]

ATOMIC_POSITIONS (crystal)
V             0.0000000000        0.3877206250        0.6488737853
V             0.5000000007        0.6122793764        0.8511262168
V             0.5000000007        0.6122793764        0.1488737846
V             0.0000000000        0.3877206250        0.3511262161
O             0.5000000007        0.4933666779        0.6814828376
O             0.0000000000        0.5066333235        0.8185171645
O             0.0000000000        0.5066333235        0.1814828369
O             0.5000000007        0.4933666779        0.3185171638
O             0.0000000000        0.0215938893        0.3535645495
O             0.5000000007        0.9784061121        0.1464354512
O             0.5000000007        0.9784061121        0.8535645502
O             0.5000000007        0.5073781472        0.0000000000
O             0.0000000000        0.4926218543        0.5000000007
O             0.0000000000        0.0215938893        0.6464354519

     Writing output data file ./v2o5.save/
     NEW-OLD atomic charge density approx. for the potential

     negative rho (up, down):  5.886E-04 0.000E+00
     extrapolated charge  112.04507, renormalised to  112.00000

[...]

     bfgs converged in  26 scf cycles and  25 bfgs steps
     (criteria: energy <  1.0E-04 Ry, force <  1.0E-03Ry/Bohr, cell <  5.0E-01kbar)

     End of BFGS Geometry Optimization

     Final enthalpy =   -1260.5397499433 Ry
Begin final coordinates
     new unit-cell volume =   1194.86996 a.u.^3 (   177.06146 Ang^3 )
     density =      3.41146 g/cm^3

CELL_PARAMETERS (angstrom)
   3.546351593   0.000000000   0.000000000
   0.000000000   4.332914936   0.000000000
   0.000000000   0.000000000  11.522907686

ATOMIC_POSITIONS (crystal)
V             0.0000000000        0.3877206250        0.6488737853
V             0.5000000007        0.6122793764        0.8511262168
V             0.5000000007        0.6122793764        0.1488737846
V             0.0000000000        0.3877206250        0.3511262161
O             0.5000000007        0.4933666779        0.6814828376
O             0.0000000000        0.5066333235        0.8185171645
O             0.0000000000        0.5066333235        0.1814828369
O             0.5000000007        0.4933666779        0.3185171638
O             0.0000000000        0.0215938893        0.3535645495
O             0.5000000007        0.9784061121        0.1464354512
O             0.5000000007        0.9784061121        0.8535645502
O             0.5000000007        0.5073781472        0.0000000000
O             0.0000000000        0.4926218543        0.5000000007
O             0.0000000000        0.0215938893        0.6464354519
End final coordinates

     Writing output data file ./v2o5.save/

     Final scf calculation at the relaxed structure.
     The G-vectors are recalculated for the final unit cell
     Results may differ from those at the preceding step.

     bravais-lattice index     =            0
     lattice parameter (alat)  =       6.8383  a.u.
     unit-cell volume          =    1194.8700 (a.u.)^3
     number of atoms/cell      =           14
     number of atomic types    =            2
     number of electrons       =       112.00
     number of Kohn-Sham states=           67
     kinetic-energy cutoff     =      65.0000  Ry
     charge density cutoff     =     650.0000  Ry
     convergence threshold     =      1.0E-12
     mixing beta               =       0.2000
     number of iterations used =            8  local-TF  mixing
     Exchange-correlation= SLA PW PSX PSC
                           (   1   4  10   8   0   0   0)

     celldm(1)=   6.838273  celldm(2)=   0.000000  celldm(3)=   0.000000
     celldm(4)=   0.000000  celldm(5)=   0.000000  celldm(6)=   0.000000

     crystal axes: (cart. coord. in units of alat)
               a(1) = (   0.980018   0.000000   0.000000 )
               a(2) = (   0.000000   1.197382   0.000000 )
               a(3) = (   0.000000   0.000000   3.184304 )

     reciprocal axes: (cart. coord. in units 2 pi/alat)
               b(1) = (  1.020389  0.000000  0.000000 )
               b(2) = (  0.000000  0.835156  0.000000 )
               b(3) = (  0.000000  0.000000  0.314040 )

     PseudoPot. # 1 for V  read from file:
     ~/pseudos/V.pbesol-spnl-kjpaw_psl.1.0.0.UPF
     MD5 check sum: Not computed, couldn't open file
     Pseudo is Projector augmented-wave + core cor, Zval = 13.0
     Generated using "atomic" code by A. Dal Corso v.6.3
     Shape of augmentation charge: PSQ
     Using radial grid of 1181 points,  6 beta functions with:
                l(1) =   0
                l(2) =   0
                l(3) =   1
                l(4) =   1
                l(5) =   2
                l(6) =   2
     Q(r) pseudized with 0 coefficients

     PseudoPot. # 2 for O  read from file:
     ~/pseudos/O.pbesol-n-kjpaw_psl.1.0.0.UPF
     MD5 check sum: Not computed, couldn't open file
     Pseudo is Projector augmented-wave + core cor, Zval =  6.0
     Generated using "atomic" code by A. Dal Corso v.6.3
     Shape of augmentation charge: PSQ
     Using radial grid of 1095 points,  4 beta functions with:
                l(1) =   0
                l(2) =   0
                l(3) =   1
                l(4) =   1
     Q(r) pseudized with 0 coefficients

     atomic species   valence    mass     pseudopotential
        V             13.00    50.94150     V ( 1.00)
        O              6.00    15.99940     O ( 1.00)

      8 Sym. Ops., with inversion, found ( 4 have fractional translation)

   Cartesian axes

     site n.     atom                  positions (alat units)
         1           V   tau(   1) = (   0.0000000   0.4642496   2.0662115  )
         2           V   tau(   2) = (   0.4900092   0.7331321   2.7102447  )
         3           V   tau(   3) = (   0.4900092   0.7331321   0.4740594  )
         4           V   tau(   4) = (   0.0000000   0.4642496   1.1180927  )
         5           O   tau(   5) = (   0.4900092   0.5907482   2.1700486  )
         6           O   tau(   6) = (   0.0000000   0.6066335   2.6064076  )
         7           O   tau(   7) = (   0.0000000   0.6066335   0.5778966  )
         8           O   tau(   8) = (   0.4900092   0.5907482   1.0142555  )
         9           O   tau(   9) = (   0.0000000   0.0258561   1.1258571  )
        10           O   tau(  10) = (   0.4900092   1.1715256   0.4662950  )
        11           O   tau(  11) = (   0.4900092   1.1715256   2.7180091  )
        12           O   tau(  12) = (   0.4900092   0.6075253   0.0000000  )
        13           O   tau(  13) = (   0.0000000   0.5898564   1.5921521  )
        14           O   tau(  14) = (   0.0000000   0.0258561   2.0584471  )

     number of k points=     4  Gaussian smearing, width (Ry)=  0.0200
                       cart. coord. in units 2pi/alat
        k(    1) = (   0.0000000   0.0000000   0.0000000), wk =   0.2222222
        k(    2) = (   0.0000000   0.2783852   0.0000000), wk =   0.4444444
        k(    3) = (   0.3401297   0.0000000   0.0000000), wk =   0.4444444
        k(    4) = (   0.3401297   0.2783852   0.0000000), wk =   0.8888889

     Check: negative core charge=   -0.000001

     Initial potential from superposition of free atoms

     starting charge  111.99661, renormalised to  112.00000
     Starting wfcs are   80 randomized atomic wfcs
     Checking if some PAW data can be deallocated...

     Self-consistent Calculation

     iteration #  1     ecut=    65.00 Ry     beta= 0.20
     Davidson diagonalization with overlap
     c_bands:  1 eigenvalues not converged
     ethr =  1.00E-06,  avg # of iterations = 18.0

[...]

     total energy              =   -1260.53249238 Ry
     Harris-Foulkes estimate   =   -1260.53249238 Ry
     estimated scf accuracy    <          1.6E-12 Ry

     iteration # 55     ecut=    65.00 Ry     beta= 0.20
     Davidson diagonalization with overlap
     ethr =  1.00E-13,  avg # of iterations =  1.0

[...]

     End of self-consistent calculation

[...]

          k = 0.3401 0.2784 0.0000 ( 10559 PWs)   bands (ev):

   -59.4297 -59.4277 -59.4230 -59.4210 -33.5707 -33.5682 -33.5646 -33.5605
   -33.4928 -33.4654 -33.4521 -33.4429 -33.3822 -33.3785 -33.3617 -33.3488
   -12.6750 -12.5408 -12.0406 -11.9374 -11.8747 -11.8141 -11.4271 -11.4062
   -11.3193 -11.3042  -0.8222  -0.7474  -0.0247   0.0010   0.0808   0.2460
     0.4141   0.5271   0.5620   0.8114   0.8680   1.1742   1.4539   1.4914
     1.5962   1.5975   1.7736   1.8953   2.0619   2.5097   2.7848   2.9774
     3.2332   3.2847   3.7278   3.9013   3.9212   4.0677   4.1067   4.1301
     6.4755   6.6704   7.4191   7.4503   7.7983   7.9814   8.0154   8.0373
     8.2906   8.3196   8.3745

     the Fermi energy is     5.1325 ev

!    total energy              =   -1260.53249238 Ry
     Harris-Foulkes estimate   =   -1260.53249238 Ry
     estimated scf accuracy    <          3.0E-13 Ry

     total all-electron energy =     -9087.672427 Ry

     The total energy is the sum of the following terms:

     one-electron contribution =    -572.13236125 Ry
     hartree contribution      =     330.02193214 Ry
     xc contribution           =    -153.06779842 Ry
     ewald contribution        =    -501.46532495 Ry
     one-center paw contrib.   =    -363.88893986 Ry
     smearing contrib. (-TS)   =      -0.00000002 Ry

     convergence has been achieved in  55 iterations

     negative rho (up, down):  2.681E-04 0.000E+00

     Forces acting on atoms (cartesian axes, Ry/au):

     atom    1 type  1   force =     0.00000000    0.00113329    0.00001125
     atom    2 type  1   force =     0.00000000   -0.00113329   -0.00001125
     atom    3 type  1   force =     0.00000000   -0.00113329    0.00001125
     atom    4 type  1   force =     0.00000000    0.00113329   -0.00001125
     atom    5 type  2   force =     0.00000000   -0.00082455   -0.00036587
     atom    6 type  2   force =     0.00000000    0.00082455    0.00036587
     atom    7 type  2   force =     0.00000000    0.00082455   -0.00036587
     atom    8 type  2   force =     0.00000000   -0.00082455    0.00036587
     atom    9 type  2   force =     0.00000000   -0.00097784   -0.00023130
     atom   10 type  2   force =     0.00000000    0.00097784    0.00023130
     atom   11 type  2   force =     0.00000000    0.00097784   -0.00023130
     atom   12 type  2   force =     0.00000000   -0.00029548    0.00000000
     atom   13 type  2   force =     0.00000000    0.00029548    0.00000000
     atom   14 type  2   force =     0.00000000   -0.00097784    0.00023130

     Total force =     0.003551     Total SCF correction =     0.000002

     Computing stress (Cartesian axis) and pressure

     negative rho (up, down):  2.681E-04 0.000E+00
          total   stress  (Ry/bohr**3)                   (kbar)     P=       -3.03
  -0.00001390   0.00000000   0.00000000           -2.05        0.00        0.00
   0.00000000  -0.00003675   0.00000000            0.00       -5.41        0.00
   0.00000000   0.00000000  -0.00001106            0.00        0.00       -1.63

     Writing output data file ./v2o5.save/

     General routines

     Parallel routines

   This run was terminated on:  11:41:25  20Feb2021

   JOB DONE.