     Program PWSCF v.6.4.1 starts on 11Jun2024 at 20:37:15

     R & G space division:  proc/nbgrp/npool/nimage =      32
     Reading input from v16o39.rlx.in
Warning: card &CELL ignored
Warning: card     CELL_DYNAMICS  = "BFGS" ignored
Warning: card / ignored

     Current dimensions of program PWSCF are:
     Max number of different atomic species (ntypx) = 10
     Max number of k-points (npk) =  40000
     Max angular momentum in pseudopotentials (lmaxx) =  3
               file V.pbe-spnl-kjpaw_psl.1.0.0.UPF: wavefunction(s)  3P 3D renormalized
               file O.pbe-n-kjpaw_psl.1.0.0.UPF: wavefunction(s)  2S 2P renormalized

     Parameters for Dispersion (Grimme-D2) Correction:
       atom      VdW radius       C_6

        V          2.952        374.666
        O          2.536         24.284

     Subspace diagonalization in iterative solution of the eigenvalue problem:
     one sub-group per band group will be used

     bravais-lattice index     =            8
     lattice parameter (alat)  =      13.3968  a.u.
     unit-cell volume          =    4868.8223 (a.u.)^3
     number of atoms/cell      =           55
     number of atomic types    =            2
     number of electrons       =       442.00
     number of Kohn-Sham states=          265
     kinetic-energy cutoff     =      65.0000  Ry
     charge density cutoff     =     650.0000  Ry
     convergence threshold     =      1.0E-09
     mixing beta               =       0.7000
     number of iterations used =            8  plain     mixing
     Exchange-correlation      = SLA PW PBX PBC ( 1  4  3  4 0 0)
     nstep                     =          500

     celldm(1)=  13.396828  celldm(2)=   1.235512  celldm(3)=   1.638970
     celldm(4)=   0.000000  celldm(5)=   0.000000  celldm(6)=   0.000000

     crystal axes: (cart. coord. in units of alat)
               a(1) = (   1.000000   0.000000   0.000000 )
               a(2) = (   0.000000   1.235512   0.000000 )
               a(3) = (   0.000000   0.000000   1.638970 )

     reciprocal axes: (cart. coord. in units 2 pi/alat)
               b(1) = (  1.000000  0.000000  0.000000 )
               b(2) = (  0.000000  0.809381  0.000000 )
               b(3) = (  0.000000  0.000000  0.610139 )

     PseudoPot. # 1 for V  read from file:
     /home/mpicuntureo/pseudos/V.pbe-spnl-kjpaw_psl.1.0.0.UPF
     MD5 check sum: 069c5df6a0a9f40a694a86a6cab52b89
     Pseudo is Projector augmented-wave + core cor, Zval = 13.0
     Generated using "atomic" code by A. Dal Corso v.6.3
     Shape of augmentation charge: PSQ
     Using radial grid of 1181 points,  6 beta functions with:
                l(1) =   0
                l(2) =   0
                l(3) =   1
                l(4) =   1
                l(5) =   2
                l(6) =   2
     Q(r) pseudized with 0 coefficients

     PseudoPot. # 2 for O  read from file:
     /home/mpicuntureo/pseudos/O.pbe-n-kjpaw_psl.1.0.0.UPF
     MD5 check sum: e99d9cef9b487d1ca56f5b95ecd0fd7a
     Pseudo is Projector augmented-wave + core cor, Zval =  6.0
     Generated using "atomic" code by A. Dal Corso v.6.3
     Shape of augmentation charge: PSQ
     Using radial grid of 1095 points,  4 beta functions with:
                l(1) =   0
                l(2) =   0
                l(3) =   1
                l(4) =   1
     Q(r) pseudized with 0 coefficients

     atomic species   valence    mass     pseudopotential
        V             13.00    50.94150     V ( 1.00)
        O              6.00    15.99940     O ( 1.00)

      2 Sym. Ops. (no inversion) found

   Cartesian axes

     site n.     atom                  positions (alat units)
         1           V   tau(   1) = (   0.0000000   0.2343974   1.0636217  )
         2           V   tau(   2) = (   0.2493423   0.3792715   1.3957365  )
         3           V   tau(   3) = (   0.2511110   0.3817327   0.2431134  )
         4           V   tau(   4) = (   0.0000000   0.2390273   0.5790875  )
         5           O   tau(   5) = (   0.2499381   0.3066479   1.1136455  )
         6           O   tau(   6) = (   0.0000000   0.3071134   1.3440124  )
         7           O   tau(   7) = (   0.0000000   0.3194188   0.3020499  )
         8           O   tau(   8) = (   0.2558664   0.3053482   0.5268967  )
         9           O   tau(   9) = (   0.0000000   0.0138877   0.5798804  )
        10           O   tau(  10) = (   0.2613665   0.6067765   0.2450087  )
        11           O   tau(  11) = (   0.2486939   0.6039315   1.3969608  )
        12           O   tau(  12) = (   0.2512856   0.3168127   0.0019472  )
        13           O   tau(  13) = (   0.0000000   0.3025736   0.8201114  )
        14           O   tau(  14) = (   0.0000000   0.0095968   1.0582012  )
        15           V   tau(  15) = (   0.0000000   0.8529107   1.0602110  )
        16           V   tau(  16) = (   0.2498236   0.9976705   1.3909210  )
        17           V   tau(  17) = (   0.2467331   0.9929980   0.2365445  )
        18           V   tau(  18) = (   0.0000000   0.8515840   0.5774253  )
        19           O   tau(  19) = (   0.2519615   0.9222171   1.1105104  )
        20           O   tau(  20) = (   0.0000000   0.9292523   1.3385651  )
        21           O   tau(  21) = (   0.0000000   0.9178024   0.2996471  )
        22           O   tau(  22) = (   0.2557689   0.9194529   0.5270898  )
        23           O   tau(  23) = (   0.0000000   0.6266638   0.5825818  )
        24           O   tau(  24) = (   0.2383839   1.2180997   0.2394638  )
        25           O   tau(  25) = (   0.2531290   1.2222278   1.3958693  )
        26           O   tau(  26) = (   0.2495949   0.9301336  -0.0039434  )
        27           O   tau(  27) = (   0.0000000   0.9215222   0.8171349  )
        28           O   tau(  28) = (   0.0000000   0.6284233   1.0562848  )
        29           V   tau(  29) = (   0.5000000   0.2395865   1.0643657  )
        30           V   tau(  30) = (   0.7506577   0.3792715   1.3957365  )
        31           V   tau(  31) = (   0.7488890   0.3817327   0.2431134  )
        32           V   tau(  32) = (   0.5000000   0.2348726   0.5796219  )
        33           O   tau(  33) = (   0.7500619   0.3066479   1.1136455  )
        34           O   tau(  34) = (   0.5000000   0.3068302   1.3413651  )
        35           O   tau(  35) = (   0.5000000   0.3047830   0.3020260  )
        36           O   tau(  36) = (   0.7441336   0.3053482   0.5268967  )
        37           O   tau(  37) = (   0.5000000  -0.0096946   0.5970048  )
        38           O   tau(  38) = (   0.7386335   0.6067765   0.2450087  )
        39           O   tau(  39) = (   0.7513061   0.6039315   1.3969608  )
        40           O   tau(  40) = (   0.7487144   0.3168127   0.0019472  )
        41           O   tau(  41) = (   0.5000000   0.3089699   0.8111849  )
        42           O   tau(  42) = (   0.5000000   0.0153511   1.0481255  )
        43           V   tau(  43) = (   0.5000000   0.8435857   1.0688038  )
        44           V   tau(  44) = (   0.7501764   0.9976705   1.3909210  )
        45           V   tau(  45) = (   0.7532669   0.9929980   0.2365445  )
        46           V   tau(  46) = (   0.5000000   0.9768561   0.5846982  )
        47           O   tau(  47) = (   0.7480385   0.9222171   1.1105104  )
        48           O   tau(  48) = (   0.5000000   0.9225296   1.3397940  )
        49           O   tau(  49) = (   0.5000000   0.9430874   0.2996113  )
        50           O   tau(  50) = (   0.7442311   0.9194529   0.5270898  )
        51           O   tau(  51) = (   0.7616161   1.2180997   0.2394638  )
        52           O   tau(  52) = (   0.7468710   1.2222278   1.3958693  )
        53           O   tau(  53) = (   0.7504051   0.9301336  -0.0039434  )
        54           O   tau(  54) = (   0.5000000   0.8983368   0.8125422  )
        55           O   tau(  55) = (   0.5000000   0.6188788   1.0657460  )

     number of k points=     8  gaussian smearing, width (Ry)=  0.0500
                       cart. coord. in units 2pi/alat
        k(    1) = (   0.0000000   0.0000000   0.0000000), wk =   0.2500000
        k(    2) = (   0.0000000   0.0000000  -0.3050697), wk =   0.2500000
        k(    3) = (   0.0000000  -0.4046905   0.0000000), wk =   0.2500000
        k(    4) = (   0.0000000  -0.4046905  -0.3050697), wk =   0.2500000
        k(    5) = (  -0.5000000   0.0000000   0.0000000), wk =   0.2500000
        k(    6) = (  -0.5000000   0.0000000  -0.3050697), wk =   0.2500000
        k(    7) = (  -0.5000000  -0.4046905   0.0000000), wk =   0.2500000
        k(    8) = (  -0.5000000  -0.4046905  -0.3050697), wk =   0.2500000

     Check: negative core charge=   -0.000001

     Initial potential from superposition of free atoms

     starting charge  441.98541, renormalised to  442.00000
     Starting wfcs are  316 randomized atomic wfcs
     Checking if some PAW data can be deallocated...

     Self-consistent Calculation

     iteration #  1     ecut=    65.00 Ry     beta= 0.70
     Davidson diagonalization with overlap
     ethr =  1.00E-02,  avg # of iterations =  2.0

     total energy              =   -5032.18682081 Ry
     Harris-Foulkes estimate   =   -5058.50136255 Ry
     estimated scf accuracy    <      32.45458644 Ry

[...]

     iteration #  4     ecut=    65.00 Ry     beta= 0.70
     Davidson diagonalization with overlap
     c_bands:  3 eigenvalues not converged
     ethr =  7.34E-03,  avg # of iterations = 13.9

[...]

     negative rho (up, down):  8.312E-06 0.000E+00

[...]

     iteration # 12     ecut=    65.00 Ry     beta= 0.70
     Davidson diagonalization with overlap
     c_bands:  3 eigenvalues not converged
     ethr =  4.81E-05,  avg # of iterations = 14.4

[...]

     total energy              =   -5053.59779153 Ry
     Harris-Foulkes estimate   =   -5053.59779153 Ry
     estimated scf accuracy    <          2.0E-09 Ry

     iteration # 49     ecut=    65.00 Ry     beta= 0.70
     Davidson diagonalization with overlap
     ethr =  4.49E-13,  avg # of iterations =  6.0

[...]

     End of self-consistent calculation

          k = 0.0000 0.0000 0.0000 ( 43117 PWs)   bands (ev):

   -60.2664 -60.2385 -59.8107 -59.8051 -59.7972 -59.7554 -59.7515 -59.7492
   -59.7456 -59.7435 -59.7404 -59.7391 -59.7203 -59.7179 -59.7024 -59.6763
   -34.2270 -34.1849 -34.1385 -34.1008 -34.0912 -34.0403 -33.8713 -33.8441
   -33.8339 -33.7962 -33.7863 -33.7810 -33.7725 -33.7680 -33.7678 -33.7635
   -33.7533 -33.7480 -33.7405 -33.7089 -33.6900 -33.6750 -33.6685 -33.6539
   -33.6470 -33.6467 -33.6460 -33.6360 -33.6202 -33.6169 -33.6105 -33.6056
   -33.5885 -33.5845 -33.5756 -33.5739 -33.5706 -33.5676 -33.5497 -33.5486
   -33.5481 -33.5322 -33.5303 -33.5247 -33.5155 -33.5077 -33.5031 -33.4828
   -13.5666 -13.4363 -13.3613 -13.2406 -13.0598 -12.6480 -12.5499 -12.5281
   -12.4766 -12.4361 -12.3718 -12.3568 -12.3445 -12.3344 -12.3077 -12.2887
   -12.2851 -12.2660 -12.2075 -12.1725 -12.1190 -12.0886 -12.0831 -12.0384
   -12.0308 -11.7862 -11.7307 -11.7231 -11.6922 -11.6452 -11.6394 -11.6050
   -11.6000 -11.5763 -11.5528 -11.5349 -11.5234 -11.5215 -11.4601  -0.7014
    -0.6153  -0.5843  -0.5258  -0.5219  -0.4488  -0.3552  -0.3534  -0.3332
    -0.3077  -0.2914  -0.2681  -0.2636  -0.2463  -0.2113  -0.1557  -0.1432
    -0.0963  -0.0421   0.0047   0.0104   0.0266   0.1325   0.1875   0.2250
     0.3535   0.3837   0.4431   0.5160   0.5287   0.5906   0.6056   0.6277
     0.6633   0.6929   0.7599   0.7821   0.9422   0.9479   1.0909   1.1888
     1.2080   1.2767   1.3187   1.3247   1.3713   1.3798   1.4301   1.4403
     1.4683   1.5171   1.5284   1.6145   1.6294   1.6374   1.7236   1.7606
     1.7627   1.7758   1.8184   1.8212   1.9042   1.9725   2.0390   2.0762
     2.1347   2.1877   2.1946   2.2103   2.2181   2.2736   2.2747   2.3166
     2.3402   2.3468   2.3667   2.3942   2.4410   2.4652   2.4764   2.5159
     2.5959   2.6254   2.6822   2.7159   2.8266   2.8404   2.8868   2.8908
     2.9147   2.9894   2.9993   3.0081   3.0484   3.0753   3.1389   3.1416
     3.2329   3.2406   3.2699   3.2806   3.3682   3.3785   3.3929   3.4727
     3.4766   3.4979   3.5113   3.6236   3.6639   3.7203   3.8669   3.9237
     3.9474   3.9989   4.0753   4.1072   5.8926   6.0891   6.1582   6.2133
     6.2527   6.4174   6.4722   6.4822   6.6251   6.6289   7.0627   7.1196
     7.1889   7.2788   7.2948   7.3383   7.4143   7.5025   7.5064   7.5095
     7.5891   7.6114   7.6534   7.7081   7.7154   7.7433   7.8267   7.8522
     7.8750   7.8773   7.8965   7.9470   8.0550   8.0945   8.1142   8.1871
     8.2175   8.2315   8.2436   8.3230   8.3234   8.3335   8.4248   8.4569
     8.5030

[...]

          k = 0.0000-0.4047-0.3051 ( 43112 PWs)   bands (ev):

[...]

          k =-0.5000 0.0000 0.0000 ( 43106 PWs)   bands (ev):

[...]

          k =-0.5000-0.4047-0.3051 ( 43072 PWs)   bands (ev):

   -60.2664 -60.2385 -59.8106 -59.8051 -59.7972 -59.7553 -59.7507 -59.7500
   -59.7446 -59.7444 -59.7403 -59.7393 -59.7195 -59.7188 -59.7024 -59.6763
   -34.2270 -34.1849 -34.1385 -34.1007 -34.0900 -34.0380 -33.8711 -33.8442
   -33.8334 -33.7960 -33.7844 -33.7829 -33.7695 -33.7685 -33.7680 -33.7663
   -33.7516 -33.7502 -33.7402 -33.7091 -33.6852 -33.6753 -33.6559 -33.6553
   -33.6518 -33.6450 -33.6306 -33.6280 -33.6241 -33.6209 -33.6023 -33.6015
   -33.5929 -33.5814 -33.5705 -33.5660 -33.5647 -33.5633 -33.5578 -33.5561
   -33.5480 -33.5429 -33.5391 -33.5315 -33.5284 -33.5148 -33.5003 -33.4905
   -13.3222 -13.1649 -13.0464 -13.0455 -13.0341 -12.9824 -12.9822 -12.9344
   -12.9309 -12.4994 -12.4026 -12.2432 -12.2383 -12.2160 -12.2159 -12.1774
   -12.1746 -12.1740 -12.1534 -12.1401 -12.1281 -12.1183 -12.1167 -12.1091
   -12.0917 -11.7696 -11.7084 -11.7052 -11.6936 -11.6404 -11.6344 -11.6185
   -11.5891 -11.5758 -11.5599 -11.5496 -11.5476 -11.5050 -11.4984  -0.8420
    -0.8193  -0.7929  -0.7683  -0.7126  -0.7064  -0.6507  -0.6413  -0.6287
    -0.3922  -0.1884  -0.1407  -0.0316  -0.0110  -0.0058   0.0033   0.0316
     0.0986   0.2213   0.2922   0.3009   0.3301   0.3341   0.3443   0.3579
     0.4547   0.4569   0.5644   0.5832   0.6405   0.6532   0.6974   0.7524
     0.7681   0.8290   0.8421   0.8672   0.8985   0.9083   0.9173   0.9461
     1.0096   1.0224   1.0387   1.0388   1.0884   1.0922   1.1592   1.1915
     1.2969   1.5373   1.5945   1.6164   1.6522   1.6596   1.6793   1.6951
     1.7958   1.8777   1.9101   1.9464   1.9562   1.9683   2.0126   2.0343
     2.0691   2.1001   2.1252   2.2043   2.2241   2.2326   2.2540   2.2580
     2.2742   2.2825   2.3230   2.3265   2.3647   2.4528   2.6085   2.6453
     2.6531   2.7027   2.7040   2.7164   2.7181   2.7848   2.9210   2.9416
     2.9423   3.0570   3.0645   3.0998   3.1178   3.2710   3.3012   3.3887
     3.4015   3.4346   3.4511   3.4957   3.5064   3.5325   3.5504   3.5998
     3.6318   3.6332   3.6505   3.6715   3.7297   3.7680   3.7739   3.7798
     3.7817   3.8109   3.8187   3.8636   6.1753   6.2537   6.2827   6.3609
     6.3711   6.3870   6.4259   6.4614   6.4948   6.5442   7.1213   7.1865
     7.2786   7.3004   7.3262   7.3835   7.4290   7.4484   7.4561   7.4643
     7.5181   7.6235   7.6337   7.6552   7.6592   7.6737   7.7527   7.7539
     7.8215   7.8463   7.8627   7.8907   7.8948   7.9296   7.9651   7.9782
     8.0044   8.0061   8.0171   8.0889   8.0960   8.1043   8.1137   8.1408
     8.1531

     the Fermi energy is     5.6877 ev

!    total energy              =   -5053.59779153 Ry
     Harris-Foulkes estimate   =   -5053.59779153 Ry
     estimated scf accuracy    <          9.0E-10 Ry

     total all-electron energy =    -36252.166570 Ry

     The total energy is the sum of the following terms:

     one-electron contribution =   -2352.47110107 Ry
     hartree contribution      =    1346.52636504 Ry
     xc contribution           =    -612.36310489 Ry
     ewald contribution        =   -1942.72829495 Ry
     Dispersion Correction     =      -0.51171826 Ry
     one-center paw contrib.   =   -1491.93392126 Ry
     smearing contrib. (-TS)   =      -0.11601614 Ry

     convergence has been achieved in  49 iterations

     negative rho (up, down):  1.715E-03 0.000E+00

     Forces acting on atoms (cartesian axes, Ry/au):

     atom    1 type  1   force =     0.00000000   -0.00001400    0.00002175
     atom    2 type  1   force =    -0.00001467    0.00000478    0.00001406
     atom    3 type  1   force =    -0.00000290   -0.00000099    0.00002712
     atom    4 type  1   force =     0.00000000   -0.00001138    0.00005634
     atom    5 type  2   force =    -0.00004998   -0.00000234   -0.00000115
     atom    6 type  2   force =     0.00000000   -0.00001786   -0.00000137
     atom    7 type  2   force =     0.00000000    0.00005063    0.00000083
     atom    8 type  2   force =    -0.00002785   -0.00000092    0.00000314
     atom    9 type  2   force =     0.00000000    0.00000034    0.00005830
     atom   10 type  2   force =    -0.00000195    0.00003859    0.00001122
     atom   11 type  2   force =     0.00002027    0.00000476    0.00000428
     atom   12 type  2   force =    -0.00000351   -0.00000678   -0.00000525
     atom   13 type  2   force =     0.00000000   -0.00000944    0.00001639
     atom   14 type  2   force =     0.00000000    0.00000714    0.00002866
     atom   15 type  1   force =     0.00000000    0.00002408   -0.00004765
     atom   16 type  1   force =    -0.00002371    0.00000560    0.00000614
     atom   17 type  1   force =    -0.00001895    0.00000338   -0.00000845
     atom   18 type  1   force =     0.00000000    0.00002239   -0.00001878
     atom   19 type  2   force =    -0.00004147    0.00001610   -0.00001510
     atom   20 type  2   force =     0.00000000   -0.00002565    0.00003541
     atom   21 type  2   force =     0.00000000   -0.00003274   -0.00002256
     atom   22 type  2   force =    -0.00004338   -0.00002468    0.00002143
     atom   23 type  2   force =     0.00000000    0.00000286   -0.00000216
     atom   24 type  2   force =    -0.00002966   -0.00000691   -0.00003630
     atom   25 type  2   force =     0.00001476    0.00001637   -0.00004912
     atom   26 type  2   force =     0.00002202   -0.00004927    0.00001251
     atom   27 type  2   force =     0.00000000   -0.00001036   -0.00003560
     atom   28 type  2   force =     0.00000000    0.00002700    0.00003055
     atom   29 type  1   force =     0.00000000    0.00001150    0.00002880
     atom   30 type  1   force =     0.00001467    0.00000478    0.00001406
     atom   31 type  1   force =     0.00000290   -0.00000099    0.00002712
     atom   32 type  1   force =     0.00000000   -0.00001327    0.00000377
     atom   33 type  2   force =     0.00004998   -0.00000234   -0.00000115
     atom   34 type  2   force =     0.00000000   -0.00002325   -0.00009138
     atom   35 type  2   force =     0.00000000   -0.00001879    0.00002386
     atom   36 type  2   force =     0.00002785   -0.00000092    0.00000314
     atom   37 type  2   force =     0.00000000    0.00000514   -0.00003435
     atom   38 type  2   force =     0.00000195    0.00003859    0.00001122
     atom   39 type  2   force =    -0.00002027    0.00000476    0.00000428
     atom   40 type  2   force =     0.00000351   -0.00000678   -0.00000525
     atom   41 type  2   force =     0.00000000   -0.00006751    0.00001441
     atom   42 type  2   force =     0.00000000    0.00002538    0.00003638
     atom   43 type  1   force =     0.00000000    0.00002723    0.00000591
     atom   44 type  1   force =     0.00002371    0.00000560    0.00000614
     atom   45 type  1   force =     0.00001895    0.00000338   -0.00000845
     atom   46 type  1   force =     0.00000000   -0.00001956   -0.00003576
     atom   47 type  2   force =     0.00004147    0.00001610   -0.00001510
     atom   48 type  2   force =     0.00000000    0.00007799    0.00006168
     atom   49 type  2   force =     0.00000000   -0.00001069   -0.00003692
     atom   50 type  2   force =     0.00004338   -0.00002468    0.00002143
     atom   51 type  2   force =     0.00002966   -0.00000691   -0.00003630
     atom   52 type  2   force =    -0.00001476    0.00001637   -0.00004912
     atom   53 type  2   force =    -0.00002202   -0.00004927    0.00001251
     atom   54 type  2   force =     0.00000000    0.00000167   -0.00000027
     atom   55 type  2   force =     0.00000000   -0.00000422   -0.00006528

     Total force =     0.000318     Total SCF correction =     0.000099
     SCF correction compared to forces is large: reduce conv_thr to get better values

     BFGS Geometry Optimization

     bfgs converged in   1 scf cycles and   0 bfgs steps
     (criteria: energy <  1.0E-04 Ry, force <  1.0E-04 Ry/Bohr)

     End of BFGS Geometry Optimization

     Final energy   =   -5053.5977915335 Ry
Begin final coordinates

ATOMIC_POSITIONS (angstrom)
V        0.000000000   1.661712837   7.540328948
V        1.767661669   2.688768108   9.894789307
V        1.780200139   2.706215821   1.723502820
V        0.000000000   1.694534952   4.105322458
O        1.771885432   2.173917575   7.894962521
O        0.000000000   2.177217569   9.528101521
O        0.000000000   2.264454252   2.141321195
O        1.813912746   2.164703880   3.735326368
O        0.000000000   0.098453872   4.110943696
O        1.852904528   4.301618493   1.736939126
O        1.763064641   4.281449343   9.903468657
O        1.781437784   2.245979071   0.013804019
O        0.000000000   2.145033923   5.814012065
O        0.000000000   0.068034650   7.501901360
V        0.000000000   6.046536325   7.516149835
V        1.771073526   7.072781734   9.860650254
V        1.749163932   7.039656858   1.676933734
V        0.000000000   6.037131248   4.093538829
O        1.786229879   6.537869791   7.872736652
O        0.000000000   6.587744201   9.489484416
O        0.000000000   6.506573068   2.124286794
O        1.813221523   6.518273967   3.736695914
O        0.000000000   4.442604920   4.130094877
O        1.689974173   8.635469186   1.697629955
O        1.794506446   8.664734266   9.895730273
O        1.769451815   6.593992237  -0.027955935
O        0.000000000   6.532943403   5.792911329
O        0.000000000   4.455078504   7.488315397
V        3.544647954   1.698499461   7.545603636
V        5.321634254   2.688768108   9.894789307
V        5.309095784   2.706215821   1.723502820
V        3.544647954   1.665081304   4.109111396
O        5.317410491   2.173917575   7.894962521
O        3.544647954   2.175210070   9.509334218
O        3.544647954   2.160696989   2.141151586
O        5.275383177   2.164703880   3.735326368
O        3.544647954  -0.068727599   4.232343437
O        5.236391395   4.301618493   1.736939126
O        5.326231282   4.281449343   9.903468657
O        5.307858138   2.245979071   0.013804019
O        3.544647954   2.190378749   5.750730141
O        3.544647954   0.108828789   7.430471976
V        3.544647954   5.980428551   7.577066121
V        5.318222396   7.072781734   9.860650254
V        5.340131990   7.039656858   1.676933734
V        3.544647954   6.925221874   4.145098306
O        5.303066045   6.537869791   7.872736652
O        3.544647954   6.540085071   9.498196311
O        3.544647954   6.685825950   2.124032975
O        5.276074400   6.518273967   3.736695914
O        5.399321751   8.635469186   1.697629955
O        5.294789479   8.664734266   9.895730273
O        5.319844108   6.593992237  -0.027955935
O        3.544647954   6.368575419   5.760352424
O        3.544647954   4.387415086   7.555388444
End final coordinates

     Writing output data file v16o39.save/

     General routines

     Parallel routines

   This run was terminated on:  23:50:58  11Jun2024

   JOB DONE.