     Program PWSCF v.6.4.1 starts on  7Oct2024 at 15:58:28

     R & G space division:  proc/nbgrp/npool/nimage =      32
     Reading input from C92.scf.in
Warning: card &IONS ignored
Warning: card     ION_DYNAMICS = "BFGS" ignored
Warning: card     BFGS_NDIM = 2 ignored
Warning: card / ignored

     Current dimensions of program PWSCF are:
     Max number of different atomic species (ntypx) = 10
     Max number of k-points (npk) =  40000
     Max angular momentum in pseudopotentials (lmaxx) =  3

     IMPORTANT: XC functional enforced from input :
     Exchange-correlation      = VDW-DF ( 1  4  4  0 1 0)
     Any further DFT definition will be discarded
     Please, verify this is what you really want

               file C.pbesol-n-kjpaw_psl.1.0.0.UPF: wavefunction(s)  2S 2P renormalized

     Subspace diagonalization in iterative solution of the eigenvalue problem:
     one sub-group per band group will be used

     bravais-lattice index     =            0
     lattice parameter (alat)  =      30.2219  a.u.
     unit-cell volume          =   28307.6739 (a.u.)^3
     number of atoms/cell      =           92
     number of atomic types    =            1
     number of electrons       =       368.00
     number of Kohn-Sham states=          221
     kinetic-energy cutoff     =      40.0000  Ry
     charge density cutoff     =     400.0000  Ry
     convergence threshold     =      1.0E-06
     mixing beta               =       0.4000
     number of iterations used =            8  local-TF  mixing
     Exchange-correlation      = VDW-DF ( 1  4  4  0 1 0)

     celldm(1)=  30.221920  celldm(2)=   0.000000  celldm(3)=   0.000000
     celldm(4)=   0.000000  celldm(5)=   0.000000  celldm(6)=   0.000000

     crystal axes: (cart. coord. in units of alat)
               a(1) = (   1.000000   0.000000   0.000000 )
               a(2) = (  -0.522247   0.468590   0.000000 )
               a(3) = (   0.000000   0.000000   2.188492 )

     reciprocal axes: (cart. coord. in units 2 pi/alat)
               b(1) = (  1.000000  1.114507 -0.000000 )
               b(2) = (  0.000000  2.134061  0.000000 )
               b(3) = (  0.000000 -0.000000  0.456936 )

     PseudoPot. # 1 for C  read from file:
     /home/mpicuntureo/pseudos/C.pbesol-n-kjpaw_psl.1.0.0.UPF
     MD5 check sum: f9b2fe17d1f478429498b05d17159f9e
     Pseudo is Projector augmented-wave + core cor, Zval =  4.0
     Generated using "atomic" code by A. Dal Corso v.6.3
     Shape of augmentation charge: PSQ
     Using radial grid of 1073 points,  4 beta functions with:
                l(1) =   0
                l(2) =   0
                l(3) =   1
                l(4) =   1
     Q(r) pseudized with 0 coefficients

     vdW kernel table read from file vdW_kernel_table
     MD5 check sum: 8c4337f4b28e1601c069d7ef7b6561bc

     atomic species   valence    mass     pseudopotential
        C              4.00    12.01100     C ( 1.00)

     No symmetry found

   Cartesian axes

     site n.     atom                  positions (alat units)
         1           C   tau(   1) = (  -0.1121705   0.3937980   0.2205281  )
         2           C   tau(   2) = (   0.1660925   0.0270434   0.2075302  )
         3           C   tau(   3) = (   0.0732988   0.1493758   0.2050524  )
         4           C   tau(   4) = (   0.0149019   0.0067175   0.2053298  )
         5           C   tau(   5) = (  -0.0193673   0.2715171   0.2133251  )
         6           C   tau(   6) = (  -0.0779139   0.1289831   0.2092391  )
         7           C   tau(   7) = (   0.3413540   0.4549787   0.2062329  )
         8           C   tau(   8) = (  -0.1705441   0.2511104   0.2194805  )
         9           C   tau(   9) = (   0.7710229   0.1084868   0.2159389  )
        10           C   tau(  10) = (   0.1902295   0.4345594   0.2109960  )
        11           C   tau(  11) = (  -0.2635005   0.3735630   0.2177249  )
        12           C   tau(  12) = (   0.6781015   0.2308882   0.2204865  )
        13           C   tau(  13) = (   0.6197605   0.0881522   0.2203414  )
        14           C   tau(  14) = (   0.0391299   0.4140813   0.2177008  )
        15           C   tau(  15) = (   0.5853850   0.3530569   0.2111420  )
        16           C   tau(  16) = (   0.5268453   0.2105430   0.2159741  )
        17           C   tau(  17) = (   0.4684210   0.0679463   0.2191894  )
        18           C   tau(  18) = (   0.4341986   0.3326613   0.2067252  )
        19           C   tau(  19) = (   0.3757343   0.1900278   0.2088854  )
        20           C   tau(  20) = (   0.3172601   0.0474902   0.2132306  )
        21           C   tau(  21) = (   0.2830010   0.3123420   0.2047657  )
        22           C   tau(  22) = (   0.2245551   0.1696804   0.2055453  )
        23           C   tau(  23) = (   0.1317122   0.2919795   0.2073101  )
        24           C   tau(  24) = (  -0.2747986   0.4616240   0.2126742  )
        25           C   tau(  25) = (   0.1547299   0.1152325   0.2052140  )
        26           C   tau(  26) = (  -0.4259211   0.4411893   0.2069404  )
        27           C   tau(  27) = (   0.0619346   0.2375422   0.2074583  )
        28           C   tau(  28) = (   0.0034894   0.0949115   0.2057375  )
        29           C   tau(  29) = (   0.4228284   0.4208528   0.2054918  )
        30           C   tau(  30) = (  -0.0891623   0.2170167   0.2144481  )
        31           C   tau(  31) = (   0.8522883   0.0745281   0.2097922  )
        32           C   tau(  32) = (   0.2715920   0.4005394   0.2063155  )
        33           C   tau(  33) = (  -0.1820383   0.3393671   0.2205589  )
        34           C   tau(  34) = (   0.7596066   0.1966513   0.2200059  )
        35           C   tau(  35) = (   0.7011897   0.0539761   0.2165484  )
        36           C   tau(  36) = (  -0.3333438   0.3190748   0.2170844  )
        37           C   tau(  37) = (   0.6082496   0.1764173   0.2201779  )
        38           C   tau(  38) = (   0.5499142   0.0337071   0.2204496  )
        39           C   tau(  39) = (   0.5155859   0.2986204   0.2109711  )
        40           C   tau(  40) = (   0.4570386   0.1560551   0.2148904  )
        41           C   tau(  41) = (   0.3985676   0.0134602   0.2186013  )
        42           C   tau(  42) = (   0.3644004   0.2782057   0.2057045  )
        43           C   tau(  43) = (   0.3059967   0.1355944   0.2084728  )
        44           C   tau(  44) = (   0.2131608   0.2578776   0.2051842  )
        45           C   tau(  45) = (   0.1204493   0.3800662   0.2118771  )
        46           C   tau(  46) = (  -0.0307069   0.3595822   0.2183076  )
        47           C   tau(  47) = (   0.2386307   0.0743251  -0.0156496  )
        48           C   tau(  48) = (  -0.0053834   0.1762431  -0.0161513  )
        49           C   tau(  49) = (  -0.0980909   0.2984276  -0.0087294  )
        50           C   tau(  50) = (  -0.1565468   0.1558243  -0.0114574  )
        51           C   tau(  51) = (  -0.1909150   0.4207275  -0.0083782  )
        52           C   tau(  52) = (  -0.2493326   0.2780833  -0.0072294  )
        53           C   tau(  53) = (   0.6922451   0.1354338  -0.0078238  )
        54           C   tau(  54) = (  -0.3420925   0.4003269  -0.0125276  )
        55           C   tau(  55) = (   0.5994357   0.2577345  -0.0095372  )
        56           C   tau(  56) = (   0.5409997   0.1151162  -0.0075903  )
        57           C   tau(  57) = (   0.0874188   0.0539553  -0.0188554  )
        58           C   tau(  58) = (   0.5067317   0.3799222  -0.0170676  )
        59           C   tau(  59) = (   0.4482679   0.2373337  -0.0140921  )
        60           C   tau(  60) = (   0.3897892   0.0947470  -0.0109197  )
[...]
        78           C   tau(  78) = (   0.6224336   0.0809851  -0.0075692  )
        79           C   tau(  79) = (   0.1688239   0.0198632  -0.0161687  )
        80           C   tau(  80) = (   0.5881055   0.3458671  -0.0130747  )
        81           C   tau(  81) = (   0.5296259   0.2032804  -0.0099372  )
        82           C   tau(  82) = (  -0.5046322   0.4680901  -0.0189955  )
        83           C   tau(  83) = (   0.4369311   0.3254593  -0.0174125  )
        84           C   tau(  84) = (   0.3784661   0.1828606  -0.0146310  )
        85           C   tau(  85) = (   0.3441109   0.4477584  -0.0180985  )
        86           C   tau(  86) = (   0.2856938   0.3051259  -0.0191168  )
        87           C   tau(  87) = (   0.2272718   0.1624843  -0.0183462  )
        88           C   tau(  88) = (   0.1929267   0.4273673  -0.0140668  )
        89           C   tau(  89) = (   0.1344568   0.2847803  -0.0170570  )
        90           C   tau(  90) = (   0.0417504   0.4069461  -0.0094875  )
        91           C   tau(  91) = (   0.4711767   0.0606541  -0.0077803  )
        92           C   tau(  92) = (   0.3199836   0.0402805  -0.0114247  )

     number of k points=     4  gaussian smearing, width (Ry)=  0.1000
                       cart. coord. in units 2pi/alat
        k(    1) = (   0.0000000   0.0000000   0.0000000), wk =   0.5000000
        k(    2) = (   0.0000000  -1.0670305   0.0000000), wk =   0.5000000
        k(    3) = (  -0.5000000  -0.5572533   0.0000000), wk =   0.5000000
        k(    4) = (  -0.5000000  -1.6242837   0.0000000), wk =   0.5000000

     Check: negative core charge=   -0.000002

     Initial potential from superposition of free atoms

     starting charge  367.99617, renormalised to  368.00000

     negative rho (up, down):  4.604E-03 0.000E+00

     %%%%%%%%%%%%%%%%%%%%%%%%%%%%%%%%%%%%%%%%%%%%%%%%%%%%%%%%%%%%%%%%%%%%%%%%
     %                                                                      %
     % You are using vdW-DF, which was implemented by the Thonhauser group. %
     % Please cite the following two papers that made this development      %
     % possible and the two reviews that describe the various versions:     %
     %                                                                      %
     %   T. Thonhauser et al., PRL 115, 136402 (2015).                      %
     %   T. Thonhauser et al., PRB 76, 125112 (2007).                       %
     %   K. Berland et al., Rep. Prog. Phys. 78, 066501 (2015).             %
     %   D.C. Langreth et al., J. Phys.: Condens. Matter 21, 084203 (2009). %
     %                                                                      %
     %                                                                      %
     % If you are calculating the stress with vdW-DF, please also cite:     %
     %                                                                      %
     %   R. Sabatini et al., J. Phys.: Condens. Matter 24, 424209 (2012).   %
     %                                                                      %
     %%%%%%%%%%%%%%%%%%%%%%%%%%%%%%%%%%%%%%%%%%%%%%%%%%%%%%%%%%%%%%%%%%%%%%%%

     Starting wfcs are  368 randomized atomic wfcs
     Checking if some PAW data can be deallocated...

     Self-consistent Calculation

     iteration #  1     ecut=    40.00 Ry     beta= 0.40
     Davidson diagonalization with overlap
     ethr =  1.00E-02,  avg # of iterations =  2.2

[...]

     total energy              =   -1733.52112483 Ry
     Harris-Foulkes estimate   =   -1735.70665469 Ry
     estimated scf accuracy    <      10.55175119 Ry

[...]

     iteration #  4     ecut=    40.00 Ry     beta= 0.40
     Davidson diagonalization with overlap
     c_bands:  1 eigenvalues not converged
     c_bands:  3 eigenvalues not converged
     c_bands:  1 eigenvalues not converged
     ethr =  8.87E-05,  avg # of iterations = 15.5

[...]

     iteration # 17     ecut=    40.00 Ry     beta= 0.40
     Davidson diagonalization with overlap
     c_bands:  1 eigenvalues not converged
     ethr =  6.27E-09,  avg # of iterations = 10.0

[...]

     total energy              =   -1731.23686026 Ry
     Harris-Foulkes estimate   =   -1731.23684639 Ry
     estimated scf accuracy    <       0.00000466 Ry

     iteration # 19     ecut=    40.00 Ry     beta= 0.40
     Davidson diagonalization with overlap
     ethr =  1.27E-09,  avg # of iterations =  4.2

     negative rho (up, down):  4.684E-03 0.000E+00

     End of self-consistent calculation

          k = 0.0000 0.0000 0.0000 (121045 PWs)   bands (ev):

   -21.7929 -21.7089 -20.9426 -20.9397 -20.8628 -20.8615 -20.8562 -20.8560
   -20.7775 -20.7773 -20.1257 -20.1244 -20.0512 -20.0500 -19.9049 -19.9049
   -19.8317 -19.8317 -18.4525 -18.4515 -18.3881 -18.3871 -18.1290 -18.1285
   -18.0656 -18.0651 -17.7794 -17.7771 -17.7197 -17.7160 -17.5450 -17.5448
   -17.4854 -17.4853 -17.3903 -17.3902 -17.3328 -17.3326 -17.1479 -17.1478
   -17.0906 -17.0905 -15.5781 -15.5774 -15.5405 -15.5398 -14.5205 -14.5199
   -14.4930 -14.4923 -14.3277 -14.3275 -14.2854 -14.2852 -13.8120 -13.8100
   -13.7722 -13.7681 -13.7000 -13.6998 -13.6594 -13.6593 -13.3942 -13.3941
   -13.3636 -13.3635 -13.2165 -13.2163 -13.1771 -13.1770 -12.1192 -12.1192
   -12.0939 -12.0938 -11.9839 -11.9830 -11.9585 -11.9573 -11.0487 -11.0487
   -11.0256 -11.0255 -10.5758 -10.5757 -10.5485 -10.5485 -10.1313  -9.9948
    -9.9942  -9.9768  -9.9760  -9.6393  -9.6390  -9.6207  -9.6205  -9.5260
    -9.5241  -9.5077  -9.5061  -9.4647  -9.1054  -9.0983  -9.0023  -9.0014
    -8.9846  -8.9844  -8.9688  -8.9687  -8.9652  -8.9649  -8.9503  -8.9501
    -8.7210  -8.7168  -8.7065  -8.6994  -8.4666  -8.4605  -8.3654  -8.3646
    -8.2648  -8.2613  -8.2393  -8.2378  -8.1424  -8.1419  -8.1317  -8.1299
    -8.1216  -8.1188  -7.8740  -7.8738  -7.8724  -7.8716  -7.8634  -7.8623
    -7.6264  -7.6263  -7.6135  -7.6134  -7.5193  -7.5186  -7.2748  -7.2747
    -6.9230  -6.9207  -6.9153  -6.9125  -6.8608  -6.8604  -6.8511  -6.8509
    -6.1924  -6.1905  -5.8850  -5.8845  -5.6638  -5.6616  -5.5622  -5.5213
    -5.3850  -5.3846  -5.3315  -5.3289  -5.2640  -5.2637  -5.2087  -5.2038
    -5.1822  -5.1813  -5.1127  -5.0686  -4.8115  -4.8114  -4.7704  -4.7703
    -4.7563  -4.7555  -4.3141  -4.3140  -3.2022  -3.2013  -2.9642  -2.9635
    -1.2682  -1.2676  -1.0899  -1.0889   0.0745   0.0753   0.1574   0.1577
     0.3356   0.3359   0.4167   0.4175   0.4646   0.4651   0.5960   0.6099
     0.6712   0.7599   0.7602   0.8731   0.9168   0.9698   1.1035   1.1041
     1.4006   1.4008   1.6031   1.7585   1.7641   1.7906   1.8766   1.8767
     1.8914   1.8919   2.0093   2.0444   2.0622

          k = 0.0000-1.0670 0.0000 (120926 PWs)   bands (ev):

[...]

          k =-0.5000-0.5573 0.0000 (120880 PWs)   bands (ev):

[...]

          k =-0.5000-1.6243 0.0000 (120890 PWs)   bands (ev):

   -21.5827 -21.5755 -21.4975 -21.4951 -20.7010 -20.7002 -20.6231 -20.6226
   -20.5892 -20.5888 -20.5123 -20.5119 -19.8903 -19.8900 -19.8176 -19.8172
   -19.1409 -19.1406 -19.0720 -19.0719 -18.8198 -18.8197 -18.7528 -18.7528
   -18.0331 -18.0330 -17.9703 -17.9703 -17.8278 -17.8277 -17.7662 -17.7661
   -16.6966 -16.6963 -16.6846 -16.6842 -16.6438 -16.6434 -16.6306 -16.6300
   -16.4362 -16.4130 -16.3275 -16.3270 -16.2874 -16.2870 -15.4367 -15.4188
   -15.0470 -15.0465 -15.0162 -15.0158 -13.7889 -13.7885 -13.7550 -13.7545
   -13.6463 -13.6456 -13.6140 -13.6132 -13.5990 -13.5988 -13.5579 -13.5577
   -12.6847 -12.6846 -12.6560 -12.6559 -12.5749 -12.5748 -12.5386 -12.5385
   -11.5775 -11.5755 -11.5468 -11.5449 -11.5004 -11.5003 -11.4781 -11.4779
   -11.2911 -11.2909 -11.2667 -11.2664 -10.5682 -10.5681 -10.5495 -10.5494
   -10.0833 -10.0831 -10.0611 -10.0610  -9.9605  -9.9599  -9.9421  -9.9405
    -9.8783  -9.8590  -9.2188  -9.2064  -8.8264  -8.8259  -8.7586  -8.7443
    -8.7420  -8.7417  -8.7317  -8.7311  -8.6952  -8.6940  -8.5770  -8.5748
    -8.5701  -8.5681  -8.5625  -8.5597  -8.5525  -8.5504  -8.4786  -8.4784
    -8.4663  -8.4661  -8.4590  -8.4582  -8.4471  -8.4460  -8.1836  -8.1826
    -8.1051  -8.1044  -8.0933  -8.0929  -8.0347  -8.0345  -7.8547  -7.8532
    -7.4464  -7.4459  -7.4362  -7.4353  -7.2557  -7.2554  -7.0951  -7.0919
    -7.0830  -7.0822  -6.9889  -6.9879  -6.6471  -6.6470  -6.4272  -6.4256
    -6.1023  -6.1023  -6.0755  -6.0725  -6.0696  -6.0671  -5.8129  -5.8118
    -5.7209  -5.7173  -5.7149  -5.7092  -5.5006  -5.5006  -5.3299  -5.3293
    -5.0009  -5.0007  -4.5314  -4.3526  -4.3090  -4.3089  -4.2717  -4.2715
    -4.2509  -4.2500  -3.9503  -3.9497  -3.9156  -3.9149  -3.8639  -3.8634
    -0.6620  -0.6614  -0.4680  -0.4385  -0.4379  -0.2996  -0.2989  -0.2883
    -0.2682  -0.2672  -0.0801  -0.0796  -0.0482  -0.0473   0.8646   0.8653
     0.8874   0.8879   0.9955   0.9958   1.1654   1.1683   1.1762   1.1766
     1.1999   1.2010   1.9014   1.9042   1.9392   1.9396   2.0845   2.0879
     2.0906   2.0910   2.2427   2.3240   2.3262

     the Fermi energy is    -2.1856 ev

!    total energy              =   -1731.23685972 Ry
     Harris-Foulkes estimate   =   -1731.23686131 Ry
     estimated scf accuracy    <       0.00000051 Ry

     total all-electron energy =     -7046.907419 Ry

     The total energy is the sum of the following terms:

     one-electron contribution =  -29557.56541934 Ry
     hartree contribution      =   14849.95840589 Ry
     xc contribution           =    -440.17950778 Ry
     ewald contribution        =   14007.10563616 Ry
     one-center paw contrib.   =    -590.20197085 Ry
     smearing contrib. (-TS)   =      -0.35400380 Ry

     convergence has been achieved in  19 iterations

     Writing output data file C92.save/

     General routines

     Parallel routines

   This run was terminated on:  17:48:19   7Oct2024

   JOB DONE.