     Program PWSCF v.6.4.1 starts on 10Mar2024 at 18:57:13

     R & G space division:  proc/nbgrp/npool/nimage =      16
     Reading input from li.vc.in

     Current dimensions of program PWSCF are:
     Max number of different atomic species (ntypx) = 10
     Max number of k-points (npk) =  40000
     Max angular momentum in pseudopotentials (lmaxx) =  3

     IMPORTANT: XC functional enforced from input :
     Exchange-correlation      = VDW-DF ( 1  4  4  0 1 0)
     Any further DFT definition will be discarded
     Please, verify this is what you really want

     Subspace diagonalization in iterative solution of the eigenvalue problem:
     one sub-group per band group will be used

     Found symmetry operation: I + ( -0.5000 -0.5000 -0.5000)
     This is a supercell, fractional translations are disabled
     Message from routine setup:
     DEPRECATED: symmetry with ibrav=0, use correct ibrav instead

     bravais-lattice index     =            0
     lattice parameter (alat)  =       6.4994  a.u.
     unit-cell volume          =     274.5437 (a.u.)^3
     number of atoms/cell      =            2
     number of atomic types    =            1
     number of electrons       =         6.00
     number of Kohn-Sham states=            7
     kinetic-energy cutoff     =      40.0000  Ry
     charge density cutoff     =     400.0000  Ry
     convergence threshold     =      1.0E-06
     mixing beta               =       0.4000
     number of iterations used =            8  plain     mixing
     Exchange-correlation      = VDW-DF ( 1  4  4  0 1 0)
     nstep                     =          500

     celldm(1)=   6.499359  celldm(2)=   0.000000  celldm(3)=   0.000000
     celldm(4)=   0.000000  celldm(5)=   0.000000  celldm(6)=   0.000000

     crystal axes: (cart. coord. in units of alat)
               a(1) = (   1.000000   0.000000   0.000000 )
               a(2) = (   0.000000   1.000000   0.000000 )
               a(3) = (   0.000000   0.000000   1.000000 )

     reciprocal axes: (cart. coord. in units 2 pi/alat)
               b(1) = (  1.000000  0.000000  0.000000 )
               b(2) = (  0.000000  1.000000  0.000000 )
               b(3) = (  0.000000  0.000000  1.000000 )

     PseudoPot. # 1 for Li read from file:
     /home/mpicuntureo/pseudos/Li.pbesol-sl-kjpaw_psl.1.0.0.UPF
     MD5 check sum: eef8ea5bb9be16d4f57185b44daa939b
     Pseudo is Projector augmented-wave, Zval =  3.0
     Generated using "atomic" code by A. Dal Corso v.6.3
     Shape of augmentation charge: PSQ
     Using radial grid of 1017 points,  4 beta functions with:
                l(1) =   0
                l(2) =   0
                l(3) =   1
                l(4) =   1
     Q(r) pseudized with 0 coefficients

     vdW kernel table read from file vdW_kernel_table
     MD5 check sum: 8c4337f4b28e1601c069d7ef7b6561bc

     atomic species   valence    mass     pseudopotential
        Li             3.00     6.94100     Li( 1.00)

     48 Sym. Ops., with inversion, found

   Cartesian axes

     site n.     atom                  positions (alat units)
         1           Li  tau(   1) = (   0.0000000   0.0000000   0.0000000  )
         2           Li  tau(   2) = (   0.5000000   0.5000000   0.5000000  )

     number of k points=    20  gaussian smearing, width (Ry)=  0.1000
                       cart. coord. in units 2pi/alat
        k(    1) = (   0.0000000   0.0000000   0.0000000), wk =   0.0092593
        k(    2) = (   0.0000000   0.0000000   0.1666667), wk =   0.0555556
        k(    3) = (   0.0000000   0.0000000   0.3333333), wk =   0.0555556
        k(    4) = (   0.0000000   0.0000000  -0.5000000), wk =   0.0277778
        k(    5) = (   0.0000000   0.1666667   0.1666667), wk =   0.1111111
        k(    6) = (   0.0000000   0.1666667   0.3333333), wk =   0.2222222
        k(    7) = (   0.0000000   0.1666667  -0.5000000), wk =   0.1111111
        k(    8) = (   0.0000000   0.3333333   0.3333333), wk =   0.1111111
        k(    9) = (   0.0000000   0.3333333  -0.5000000), wk =   0.1111111
        k(   10) = (   0.0000000  -0.5000000  -0.5000000), wk =   0.0277778
        k(   11) = (   0.1666667   0.1666667   0.1666667), wk =   0.0740741
        k(   12) = (   0.1666667   0.1666667   0.3333333), wk =   0.2222222
        k(   13) = (   0.1666667   0.1666667  -0.5000000), wk =   0.1111111
        k(   14) = (   0.1666667   0.3333333   0.3333333), wk =   0.2222222
        k(   15) = (   0.1666667   0.3333333  -0.5000000), wk =   0.2222222
        k(   16) = (   0.1666667  -0.5000000  -0.5000000), wk =   0.0555556
        k(   17) = (   0.3333333   0.3333333   0.3333333), wk =   0.0740741
        k(   18) = (   0.3333333   0.3333333  -0.5000000), wk =   0.1111111
        k(   19) = (   0.3333333  -0.5000000  -0.5000000), wk =   0.0555556
        k(   20) = (  -0.5000000  -0.5000000  -0.5000000), wk =   0.0092593

     Initial potential from superposition of free atoms

     starting charge    5.99039, renormalised to    6.00000

     %%%%%%%%%%%%%%%%%%%%%%%%%%%%%%%%%%%%%%%%%%%%%%%%%%%%%%%%%%%%%%%%%%%%%%%%
     %                                                                      %
     % You are using vdW-DF, which was implemented by the Thonhauser group. %
     % Please cite the following two papers that made this development      %
     % possible and the two reviews that describe the various versions:     %
     %                                                                      %
     %   T. Thonhauser et al., PRL 115, 136402 (2015).                      %
     %   T. Thonhauser et al., PRB 76, 125112 (2007).                       %
     %   K. Berland et al., Rep. Prog. Phys. 78, 066501 (2015).             %
     %   D.C. Langreth et al., J. Phys.: Condens. Matter 21, 084203 (2009). %
     %                                                                      %
     %                                                                      %
     % If you are calculating the stress with vdW-DF, please also cite:     %
     %                                                                      %
     %   R. Sabatini et al., J. Phys.: Condens. Matter 24, 424209 (2012).   %
     %                                                                      %
     %%%%%%%%%%%%%%%%%%%%%%%%%%%%%%%%%%%%%%%%%%%%%%%%%%%%%%%%%%%%%%%%%%%%%%%%

     Starting wfcs are   10 randomized atomic wfcs
     Checking if some PAW data can be deallocated...

     Self-consistent Calculation

     iteration #  1     ecut=    40.00 Ry     beta= 0.40
     Davidson diagonalization with overlap
     ethr =  1.00E-02,  avg # of iterations =  2.9

     Threshold (ethr) on eigenvalues was too large:
     Diagonalizing with lowered threshold

     Davidson diagonalization with overlap
     ethr =  6.62E-06,  avg # of iterations =  4.5

     total energy              =     -30.46853418 Ry
     Harris-Foulkes estimate   =     -30.46828384 Ry
     estimated scf accuracy    <       0.00034638 Ry

[...]

     End of self-consistent calculation

          k = 0.0000 0.0000 0.0000 (  1189 PWs)   bands (ev):

   -46.4617 -46.4319  -2.6397   6.4494   6.4494   6.4495   8.6411

[...]

          k =-0.5000-0.5000-0.5000 (  1208 PWs)   bands (ev):

[...]

     the Fermi energy is     0.8547 ev

!    total energy              =     -30.46874064 Ry
     Harris-Foulkes estimate   =     -30.46873873 Ry
     estimated scf accuracy    <       0.00000038 Ry

     total all-electron energy =       -30.468744 Ry

     The total energy is the sum of the following terms:

     one-electron contribution =     -21.14626396 Ry
     hartree contribution      =       8.18834720 Ry
     xc contribution           =      -7.51608790 Ry
     ewald contribution        =     -10.07887176 Ry
     one-center paw contrib.   =       0.14112626 Ry
     smearing contrib. (-TS)   =      -0.05699048 Ry

     convergence has been achieved in   3 iterations

     Forces acting on atoms (cartesian axes, Ry/au):

     atom    1 type  1   force =     0.00000000    0.00000000    0.00000000
     atom    2 type  1   force =     0.00000000    0.00000000    0.00000000

     Total force =     0.000000     Total SCF correction =     0.000000

     Computing stress (Cartesian axis) and pressure

          total   stress  (Ry/bohr**3)                   (kbar)     P=   -3.53
  -0.00002402   0.00000000   0.00000000         -3.53      0.00      0.00
   0.00000000  -0.00002402   0.00000000          0.00     -3.53      0.00
   0.00000000   0.00000000  -0.00002402          0.00      0.00     -3.53

     BFGS Geometry Optimization

     number of scf cycles    =   1
     number of bfgs steps    =   0

     enthalpy new            =     -30.4687406440 Ry

     new trust radius        =       0.0019903194 bohr
     new conv_thr            =       0.0000010000 Ry

     new unit-cell volume =    274.04934 a.u.^3 (    40.60992 Ang^3 )
     density =      0.56763 g/cm^3

CELL_PARAMETERS (angstrom)
   3.437246794   0.000000000   0.000000000
   0.000000000   3.437246794   0.000000000
   0.000000000   0.000000000   3.437246794

ATOMIC_POSITIONS (angstrom)
Li       0.000000000   0.000000000   0.000000000
Li       1.718623397   1.718623397   1.718623397

     Writing output data file lithium.save/
     NEW-OLD atomic charge density approx. for the potential
     extrapolated charge    5.98919, renormalised to    6.00000

[...]

     enthalpy old            =     -30.4687406440 Ry
     enthalpy new            =     -30.4687523368 Ry

     CASE: enthalpy_new < enthalpy_old

[...]

     Threshold (ethr) on eigenvalues was too large:
     Diagonalizing with lowered threshold

     Davidson diagonalization with overlap
     ethr =  5.30E-08,  avg # of iterations =  1.1

[...]

     WARNING: bfgs curvature condition failed, Theta= 0.922
     new trust radius        =       0.0044748555 bohr
     new conv_thr            =       0.0000000100 Ry

[...]

     number of scf cycles    =   4
     number of bfgs steps    =   3

     enthalpy old            =     -30.4687661040 Ry
     enthalpy new            =     -30.4687817380 Ry

     CASE: enthalpy_new < enthalpy_old

     new trust radius        =       0.0067077395 bohr
     new conv_thr            =       0.0000000100 Ry

     new unit-cell volume =    270.54406 a.u.^3 (    40.09049 Ang^3 )
     density =      0.57499 g/cm^3

[...]

ATOMIC_POSITIONS (angstrom)
Li       0.000000000   0.000000000   0.000000000
Li       1.711264486   1.711264486   1.711264486

     Writing output data file lithium.save/
     NEW-OLD atomic charge density approx. for the potential
     extrapolated charge    5.96332, renormalised to    6.00000

[...]

     bfgs converged in   5 scf cycles and   4 bfgs steps
     (criteria: energy <  1.0E-04 Ry, force <  1.0E-02Ry/Bohr, cell <  5.0E-01kbar)

     End of BFGS Geometry Optimization

     Final enthalpy =     -30.4687939557 Ry
Begin final coordinates
     new unit-cell volume =    270.54406 a.u.^3 (    40.09049 Ang^3 )
     density =      0.57499 g/cm^3

CELL_PARAMETERS (angstrom)
   3.422528972   0.000000000   0.000000000
   0.000000000   3.422528972   0.000000000
   0.000000000   0.000000000   3.422528972

ATOMIC_POSITIONS (angstrom)
Li       0.000000000   0.000000000   0.000000000
Li       1.711264486   1.711264486   1.711264486
End final coordinates

     Writing output data file lithium.save/

     A final scf calculation at the relaxed structure.
     The G-vectors are recalculated for the final unit cell
     Results may differ from those at the preceding step.

     bravais-lattice index     =            0
     lattice parameter (alat)  =       6.4994  a.u.
     unit-cell volume          =     270.5441 (a.u.)^3
     number of atoms/cell      =            2
     number of atomic types    =            1
     number of electrons       =         6.00
     number of Kohn-Sham states=            7
     kinetic-energy cutoff     =      40.0000  Ry
     charge density cutoff     =     400.0000  Ry
     convergence threshold     =      1.0E-08
     mixing beta               =       0.4000
     number of iterations used =            8  plain     mixing
     Exchange-correlation      = VDW-DF ( 1  4  4  0 1 0)

     celldm(1)=   6.499359  celldm(2)=   0.000000  celldm(3)=   0.000000
     celldm(4)=   0.000000  celldm(5)=   0.000000  celldm(6)=   0.000000

     crystal axes: (cart. coord. in units of alat)
               a(1) = (   0.995120   0.000000   0.000000 )
               a(2) = (   0.000000   0.995120   0.000000 )
               a(3) = (   0.000000   0.000000   0.995120 )

     reciprocal axes: (cart. coord. in units 2 pi/alat)
               b(1) = (  1.004904  0.000000  0.000000 )
               b(2) = (  0.000000  1.004904  0.000000 )
               b(3) = (  0.000000  0.000000  1.004904 )

     PseudoPot. # 1 for Li read from file:
     /home/mpicuntureo/pseudos/Li.pbesol-sl-kjpaw_psl.1.0.0.UPF
     MD5 check sum: eef8ea5bb9be16d4f57185b44daa939b
     Pseudo is Projector augmented-wave, Zval =  3.0
     Generated using "atomic" code by A. Dal Corso v.6.3
     Shape of augmentation charge: PSQ
     Using radial grid of 1017 points,  4 beta functions with:
                l(1) =   0
                l(2) =   0
                l(3) =   1
                l(4) =   1
     Q(r) pseudized with 0 coefficients

     vdW kernel table read from file vdW_kernel_table
     MD5 check sum: 8c4337f4b28e1601c069d7ef7b6561bc

     atomic species   valence    mass     pseudopotential
        Li             3.00     6.94100     Li( 1.00)

     48 Sym. Ops., with inversion, found

   Cartesian axes

     site n.     atom                  positions (alat units)
         1           Li  tau(   1) = (   0.0000000   0.0000000   0.0000000  )
         2           Li  tau(   2) = (   0.4975601   0.4975601   0.4975601  )

     number of k points=    20  gaussian smearing, width (Ry)=  0.1000
                       cart. coord. in units 2pi/alat
        k(    1) = (   0.0000000   0.0000000   0.0000000), wk =   0.0092593
        k(    2) = (   0.0000000   0.0000000   0.1674840), wk =   0.0555556
        k(    3) = (   0.0000000   0.0000000   0.3349679), wk =   0.0555556
        k(    4) = (   0.0000000   0.0000000  -0.5024519), wk =   0.0277778
        k(    5) = (   0.0000000   0.1674840   0.1674840), wk =   0.1111111
        k(    6) = (   0.0000000   0.1674840   0.3349679), wk =   0.2222222
        k(    7) = (   0.0000000   0.1674840  -0.5024519), wk =   0.1111111
        k(    8) = (   0.0000000   0.3349679   0.3349679), wk =   0.1111111
        k(    9) = (   0.0000000   0.3349679  -0.5024519), wk =   0.1111111
        k(   10) = (   0.0000000  -0.5024519  -0.5024519), wk =   0.0277778
        k(   11) = (   0.1674840   0.1674840   0.1674840), wk =   0.0740741
        k(   12) = (   0.1674840   0.1674840   0.3349679), wk =   0.2222222
        k(   13) = (   0.1674840   0.1674840  -0.5024519), wk =   0.1111111
        k(   14) = (   0.1674840   0.3349679   0.3349679), wk =   0.2222222
        k(   15) = (   0.1674840   0.3349679  -0.5024519), wk =   0.2222222
        k(   16) = (   0.1674840  -0.5024519  -0.5024519), wk =   0.0555556
        k(   17) = (   0.3349679   0.3349679   0.3349679), wk =   0.0740741
        k(   18) = (   0.3349679   0.3349679  -0.5024519), wk =   0.1111111
        k(   19) = (   0.3349679  -0.5024519  -0.5024519), wk =   0.0555556
        k(   20) = (  -0.5024519  -0.5024519  -0.5024519), wk =   0.0092593

     Initial potential from superposition of free atoms

     starting charge    5.99039, renormalised to    6.00000
     Starting wfcs are   10 randomized atomic wfcs
     Checking if some PAW data can be deallocated...

     Self-consistent Calculation

[...]

     total energy              =     -30.46858057 Ry
     Harris-Foulkes estimate   =     -30.46858049 Ry
     estimated scf accuracy    <       0.00000003 Ry

     iteration #  5     ecut=    40.00 Ry     beta= 0.40
     Davidson diagonalization with overlap
     ethr =  5.29E-10,  avg # of iterations =  1.9

     End of self-consistent calculation

[...]

          k = 0.3350-0.5025-0.5025 (  1132 PWs)   bands (ev):

[...]

          k =-0.5025-0.5025-0.5025 (  1088 PWs)   bands (ev):

   -46.3666 -46.3664   4.3667   4.3667   4.3667   4.3667   4.3667

     the Fermi energy is     0.9008 ev

!    total energy              =     -30.46858060 Ry
     Harris-Foulkes estimate   =     -30.46858058 Ry
     estimated scf accuracy    <          2.0E-09 Ry

     total all-electron energy =       -30.468583 Ry

     The total energy is the sum of the following terms:

     one-electron contribution =     -21.07108537 Ry
     hartree contribution      =       8.16699288 Ry
     xc contribution           =      -7.52062067 Ry
     ewald contribution        =     -10.12829678 Ry
     one-center paw contrib.   =       0.14112576 Ry
     smearing contrib. (-TS)   =      -0.05669642 Ry

     convergence has been achieved in   5 iterations

     Forces acting on atoms (cartesian axes, Ry/au):

     atom    1 type  1   force =     0.00000000    0.00000000    0.00000000
     atom    2 type  1   force =     0.00000000    0.00000000    0.00000000

     Total force =     0.000000     Total SCF correction =     0.000000

     Computing stress (Cartesian axis) and pressure

          total   stress  (Ry/bohr**3)                   (kbar)     P=   -1.25
  -0.00000850   0.00000000   0.00000000         -1.25      0.00      0.00
   0.00000000  -0.00000850   0.00000000          0.00     -1.25      0.00
   0.00000000   0.00000000  -0.00000850          0.00      0.00     -1.25

     Writing output data file lithium.save/

     General routines

     Parallel routines

   This run was terminated on:  18:57:30  10Mar2024

   JOB DONE.