     Program PWSCF v.6.4.1 starts on 13Mar2024 at 20: 3:14

     R & G space division:  proc/nbgrp/npool/nimage =      32
     Reading input from interface.rlx.in

     Current dimensions of program PWSCF are:
     Max number of different atomic species (ntypx) = 10
     Max number of k-points (npk) =  40000
     Max angular momentum in pseudopotentials (lmaxx) =  3

     IMPORTANT: XC functional enforced from input :
     Exchange-correlation      = VDW-DF ( 1  4  4  0 1 0)
     Any further DFT definition will be discarded
     Please, verify this is what you really want

               file V.pbesol-spnl-kjpaw_psl.1.0.0.UPF: wavefunction(s)  3P 3D renormalized
               file O.pbesol-n-kjpaw_psl.1.0.0.UPF: wavefunction(s)  2S 2P renormalized
               file C.pbesol-n-kjpaw_psl.1.0.0.UPF: wavefunction(s)  2S 2P renormalized

     Subspace diagonalization in iterative solution of the eigenvalue problem:
     one sub-group per band group will be used

     bravais-lattice index     =            0
     lattice parameter (alat)  =      30.2219  a.u.
     unit-cell volume          =   28307.6739 (a.u.)^3
     number of atoms/cell      =          173
     number of atomic types    =            3
     number of electrons       =      1024.00
     number of Kohn-Sham states=          614
     kinetic-energy cutoff     =      40.0000  Ry
     charge density cutoff     =     400.0000  Ry
     convergence threshold     =      1.0E-06
     mixing beta               =       0.4000
     number of iterations used =            8  local-TF  mixing
     Exchange-correlation      = VDW-DF ( 1  4  4  0 1 0)
     nstep                     =          500

     celldm(1)=  30.221920  celldm(2)=   0.000000  celldm(3)=   0.000000
     celldm(4)=   0.000000  celldm(5)=   0.000000  celldm(6)=   0.000000

     crystal axes: (cart. coord. in units of alat)
               a(1) = (   1.000000   0.000000   0.000000 )
               a(2) = (  -0.522247   0.468590   0.000000 )
               a(3) = (   0.000000   0.000000   2.188492 )

     reciprocal axes: (cart. coord. in units 2 pi/alat)
               b(1) = (  1.000000  1.114507 -0.000000 )
               b(2) = (  0.000000  2.134061  0.000000 )
               b(3) = (  0.000000 -0.000000  0.456936 )

     PseudoPot. # 1 for V  read from file:
     /home/mpicuntureo/pseudos/V.pbesol-spnl-kjpaw_psl.1.0.0.UPF
     MD5 check sum: d709b3179d4cab0f72010db8785d50db
     Pseudo is Projector augmented-wave + core cor, Zval = 13.0
     Generated using "atomic" code by A. Dal Corso v.6.3
     Shape of augmentation charge: PSQ
     Using radial grid of 1181 points,  6 beta functions with:
                l(1) =   0
                l(2) =   0
                l(3) =   1
                l(4) =   1
                l(5) =   2
                l(6) =   2
     Q(r) pseudized with 0 coefficients

     PseudoPot. # 2 for O  read from file:
     /home/mpicuntureo/pseudos/O.pbesol-n-kjpaw_psl.1.0.0.UPF
     MD5 check sum: cb766521a97cf798d01896eaf7ac9a0a
     Pseudo is Projector augmented-wave + core cor, Zval =  6.0
     Generated using "atomic" code by A. Dal Corso v.6.3
     Shape of augmentation charge: PSQ
     Using radial grid of 1095 points,  4 beta functions with:
                l(1) =   0
                l(2) =   0
                l(3) =   1
                l(4) =   1
     Q(r) pseudized with 0 coefficients

     PseudoPot. # 3 for C  read from file:
     /home/mpicuntureo/pseudos/C.pbesol-n-kjpaw_psl.1.0.0.UPF
     MD5 check sum: f9b2fe17d1f478429498b05d17159f9e
     Pseudo is Projector augmented-wave + core cor, Zval =  4.0
     Generated using "atomic" code by A. Dal Corso v.6.3
     Shape of augmentation charge: PSQ
     Using radial grid of 1073 points,  4 beta functions with:
                l(1) =   0
                l(2) =   0
                l(3) =   1
                l(4) =   1
     Q(r) pseudized with 0 coefficients

     vdW kernel table read from file vdW_kernel_table
     MD5 check sum: 8c4337f4b28e1601c069d7ef7b6561bc

     atomic species   valence    mass     pseudopotential
        V             13.00    50.94150     V ( 1.00)
        O              6.00    15.99940     O ( 1.00)
        C              4.00    12.01100     C ( 1.00)

     No symmetry found

   Cartesian axes

     site n.     atom                  positions (alat units)
         1           V   tau(   1) = (   0.2353949   0.0851358   0.4883833  )
         2           V   tau(   2) = (   0.5527945   0.3986297   0.4911447  )
         3           V   tau(   3) = (   0.3945970   0.2414840   0.4889691  )
         4           V   tau(   4) = (  -0.2712113   0.3787373   0.5598093  )
         5           V   tau(   5) = (   0.5696205   0.2220463   0.5596160  )
         6           V   tau(   6) = (   0.4104589   0.0660274   0.5584369  )
         7           V   tau(   7) = (  -0.1117799   0.2462574   0.5579416  )
         8           V   tau(   8) = (   0.7305157   0.0911121   0.5579738  )
         9           V   tau(   9) = (   0.0488503   0.4020194   0.5589318  )
        10           V   tau(  10) = (   0.0707578   0.2188237   0.5532062  )
        11           V   tau(  11) = (   0.9091571   0.0667215   0.4947379  )
        12           V   tau(  12) = (   0.2318845   0.3774856   0.5535280  )
        13           V   tau(  13) = (   0.2325025   0.0879346   0.7689855  )
        14           V   tau(  14) = (   0.5510758   0.4003643   0.7688270  )
        15           V   tau(  15) = (   0.3916839   0.2440253   0.7687185  )
        16           V   tau(  16) = (  -0.2738305   0.3793215   0.8457827  )
        17           V   tau(  17) = (   0.5668909   0.2231498   0.8455931  )
        18           V   tau(  18) = (   0.4076726   0.0669632   0.8458837  )
        19           V   tau(  19) = (  -0.1047959   0.2429442   0.8455997  )
        20           V   tau(  20) = (   0.7359572   0.0866127   0.8459968  )
        21           V   tau(  21) = (   0.0544565   0.3989790   0.8454700  )
        22           V   tau(  22) = (   0.0702992   0.2217956   0.7685995  )
        23           V   tau(  23) = (   0.9110384   0.0656507   0.7689765  )
        24           V   tau(  24) = (   0.2296691   0.3781627   0.7686914  )
        25           O   tau(  25) = (  -0.3544985   0.4633149   0.5232564  )
        26           O   tau(  26) = (   0.4856228   0.3067632   0.5236853  )
        27           O   tau(  27) = (   0.3250443   0.1521631   0.5222891  )
        28           O   tau(  28) = (   0.3185390   0.0025338   0.5239189  )
        29           O   tau(  29) = (   0.6376315   0.3133440   0.5272324  )
        30           O   tau(  30) = (   0.4770245   0.1578317   0.5238874  )
        31           O   tau(  31) = (  -0.0123754   0.3054261   0.5248942  )
        32           O   tau(  32) = (   0.8228600   0.1538658   0.5244620  )
        33           O   tau(  33) = (   0.1464908   0.4609832   0.5244506  )
        34           O   tau(  34) = (  -0.0244579   0.1596225   0.5295601  )
        35           O   tau(  35) = (   0.8167892   0.0032552   0.5305074  )
        36           O   tau(  36) = (   0.1367446   0.3140292   0.5375566  )
        37           O   tau(  37) = (   0.9060962   0.0676091   0.3948635  )
        38           O   tau(  38) = (  -0.1152207   0.2529976   0.6574274  )
        39           O   tau(  39) = (   0.7246299   0.0957832   0.6574525  )
        40           O   tau(  40) = (   0.0438279   0.4086279   0.6584813  )
        41           O   tau(  41) = (  -0.2644138   0.3726156   0.6589261  )
        42           O   tau(  42) = (   0.5748603   0.2141877   0.6587093  )
        43           O   tau(  43) = (   0.4159203   0.0594834   0.6575737  )
        44           O   tau(  44) = (  -0.1894497   0.3137832   0.5175724  )
        45           O   tau(  45) = (   0.6483763   0.1536588   0.5174813  )
        46           O   tau(  46) = (   0.4910710  -0.0014664   0.5181559  )
        47           O   tau(  47) = (   0.1474154   0.1569406   0.5142047  )
        48           O   tau(  48) = (   0.9921526  -0.0010177   0.5196436  )
        49           O   tau(  49) = (   0.3063405   0.3127336   0.5152207  )
        50           O   tau(  50) = (   0.2357360   0.0853679   0.3888338  )
        51           O   tau(  51) = (   0.5535133   0.3983401   0.3914401  )
        52           O   tau(  52) = (   0.3954969   0.2429440   0.3894648  )
        53           O   tau(  53) = (  -0.3565810   0.4636156   0.8012034  )
        54           O   tau(  54) = (   0.4841918   0.3073107   0.8005197  )
        55           O   tau(  55) = (   0.3248773   0.1511856   0.8012010  )
        56           O   tau(  56) = (   0.3139464   0.0045570   0.8126605  )
        57           O   tau(  57) = (   0.6324404   0.3169630   0.8124035  )
        58           O   tau(  58) = (   0.4731592   0.1607095   0.8123933  )
        59           O   tau(  59) = (  -0.0111363   0.3052774   0.8119928  )
        60           O   tau(  60) = (   0.8296559   0.1490236   0.8127146  )
[...]
       159           C   tau( 159) = (   0.6230866   0.0801569   0.0053855  )
       160           C   tau( 160) = (   0.1694752   0.0190522   0.0035694  )
       161           C   tau( 161) = (   0.5887732   0.3450252   0.0042687  )
       162           C   tau( 162) = (   0.5303207   0.2024204   0.0049373  )
       163           C   tau( 163) = (  -0.5039731   0.4672744   0.0029347  )
       164           C   tau( 164) = (   0.4375794   0.3246495   0.0032919  )
       165           C   tau( 165) = (   0.3791238   0.1820402   0.0038870  )
       166           C   tau( 166) = (   0.3448174   0.4468978   0.0030656  )
       167           C   tau( 167) = (   0.2863724   0.3042763   0.0028493  )
       168           C   tau( 168) = (   0.2279286   0.1616659   0.0030407  )
       169           C   tau( 169) = (   0.1936091   0.4265169   0.0038764  )
       170           C   tau( 170) = (   0.1351635   0.2838973   0.0032325  )
       171           C   tau( 171) = (   0.0423951   0.4061403   0.0048951  )
       172           C   tau( 172) = (   0.4718806   0.0598007   0.0053706  )
       173           C   tau( 173) = (   0.3206685   0.0394311   0.0045875  )

     number of k points=     4  gaussian smearing, width (Ry)=  0.1000
                       cart. coord. in units 2pi/alat
        k(    1) = (   0.0000000   0.0000000   0.0000000), wk =   0.5000000
        k(    2) = (   0.0000000  -1.0670305   0.0000000), wk =   0.5000000
        k(    3) = (  -0.5000000  -0.5572533   0.0000000), wk =   0.5000000
        k(    4) = (  -0.5000000  -1.6242837   0.0000000), wk =   0.5000000

     Check: negative core charge=   -0.000004

     Initial potential from superposition of free atoms

     starting charge 1023.97587, renormalised to 1024.00000

     negative rho (up, down):  3.630E-03 0.000E+00

     %%%%%%%%%%%%%%%%%%%%%%%%%%%%%%%%%%%%%%%%%%%%%%%%%%%%%%%%%%%%%%%%%%%%%%%%
     %                                                                      %
     % You are using vdW-DF, which was implemented by the Thonhauser group. %
     % Please cite the following two papers that made this development      %
[...]

   -66.2393 -66.2370 -66.2214 -66.2201 -65.9793 -65.9761 -65.9481 -65.9303
   -65.9083 -65.9074 -65.9057 -65.8817 -65.8697 -65.8695 -65.8431 -65.8417
   -65.8351 -65.7833 -65.7312 -65.7171 -65.7139 -65.6957 -65.6918 -65.6907
   -40.4376 -40.4340 -40.1705 -40.1619 -40.0284 -40.0131 -40.0114 -40.0027
   -39.9976 -39.9961 -39.9961 -39.9824 -39.9602 -39.9465 -39.9337 -39.9315
   -39.9237 -39.9180 -39.9062 -39.8977 -39.8835 -39.8821 -39.8809 -39.8796
   -39.8752 -39.8108 -39.8018 -39.7917 -39.7819 -39.7686 -39.7657 -39.7519
   -39.7483 -39.7470 -39.7437 -39.7366 -39.7321 -39.7204 -39.7161 -39.7129
   -39.7110 -39.7091 -39.7059 -39.6910 -39.6818 -39.6772 -39.6752 -39.6740
   -39.6701 -39.6587 -39.6520 -39.6471 -39.6439 -39.6393 -39.6379 -39.6322
   -39.6282 -39.6280 -39.6114 -39.5772 -39.5731 -39.5575 -39.5486 -39.5325
   -39.5155 -39.5134 -39.5074 -39.5025 -39.4890 -39.4853 -39.4831 -39.4544
   -19.9172 -19.9052 -19.8310 -19.6442 -19.6339 -19.5839 -19.4729 -19.4598
   -19.4541 -19.3224 -19.2347 -19.1433 -19.1016 -19.0349 -19.0342 -19.0303
   -19.0240 -18.9845 -18.9246 -18.9215 -18.9112 -18.9033 -18.7496 -18.7362
   -18.7022 -18.6812 -18.6660 -18.6213 -18.6147 -18.5836 -18.5382 -18.5231
   -18.4782 -18.4740 -18.4516 -18.4416 -18.3945 -18.3801 -18.3662 -18.3394
   -18.3263 -18.3200 -18.2902 -18.2799 -18.2721 -18.2573 -18.2452 -18.2231
   -18.2186 -18.1757 -18.1478 -18.1330 -17.8991 -17.8880 -17.8669 -17.8349
   -17.8023 -17.7960 -17.7825 -17.7678 -17.7519 -17.7332 -17.7184 -17.6668
   -17.6436 -17.6338 -17.6200 -17.5840 -17.4789 -17.4757 -17.4737 -17.4530
   -17.4447 -17.4436 -17.4200 -17.4174 -17.1632 -17.1549 -17.1460 -17.0927
   -16.8265 -16.4950 -16.3740 -16.3705 -16.1685 -16.1683 -16.0786 -15.9940
   -15.8004 -15.4983 -15.0326 -15.0315 -15.0265 -15.0242 -14.8239 -14.7811
   -14.6887 -14.6788 -14.6703 -14.6645 -14.6243 -14.3398 -14.2433 -13.7954
   -13.6919 -13.3979 -13.3956 -13.3404 -13.0798 -12.5985 -12.1387 -12.1380
   -11.9928 -11.9926 -11.9471 -11.9461 -11.8300 -11.7746 -11.6817 -11.6409
   -11.3931 -11.1730 -11.0323 -11.0314 -10.9206 -10.9199 -10.7277 -10.7056
   -10.4410  -9.9427  -9.9182  -9.9103  -9.8510  -9.8502  -9.6495  -9.6469
    -9.6460  -9.5948  -9.3480  -9.2452  -9.0191  -8.9191  -8.9187  -8.7959
    -8.5126  -8.4393  -8.4378  -8.4242  -8.3111  -8.3106  -8.2123  -8.1857
    -8.1678  -8.0720  -7.6845  -7.4083  -7.3785  -7.2367  -7.1218  -7.1132
    -7.0973  -7.0963  -7.0905  -7.0388  -6.9976  -6.9557  -6.9371  -6.9354
    -6.9315  -6.9301  -6.9217  -6.8881  -6.8854  -6.8435  -6.8319  -6.8305
    -6.8266  -6.8227  -6.8160  -6.8157  -6.7717  -6.7663  -6.7200  -6.6923
    -6.6781  -6.6747  -6.6576  -6.5790  -6.5357  -6.5158  -6.4973  -6.4774
    -6.4577  -6.4546  -6.4358  -6.4274  -6.3928  -6.3606  -6.3323  -6.3198
    -6.3019  -6.2845  -6.2698  -6.2444  -6.2196  -6.1937  -6.1731  -6.1519
    -6.1192  -6.1034  -6.0907  -6.0791  -6.0691  -6.0590  -6.0448  -6.0379
    -5.9867  -5.9555  -5.9475  -5.9454  -5.9324  -5.9221  -5.8988  -5.8686
    -5.8488  -5.8398  -5.8063  -5.8054  -5.8050  -5.7873  -5.7207  -5.6940
    -5.6694  -5.6638  -5.6374  -5.6251  -5.5927  -5.5044  -5.4961  -5.4611
    -5.4421  -5.4412  -5.4224  -5.4039  -5.3809  -5.3677  -5.3577  -5.3431
    -5.3226  -5.2910  -5.2793  -5.2622  -5.2522  -5.2339  -5.1981  -5.1719
    -5.1549  -5.1172  -5.0978  -5.0917  -5.0780  -5.0463  -5.0063  -4.9908
    -4.9644  -4.9594  -4.9486  -4.9400  -4.9078  -4.8595  -4.8345  -4.8043
    -4.7858  -4.7218  -4.7128  -4.7055  -4.6939  -4.6819  -4.6483  -4.6382
    -4.6048  -4.5867  -4.5448  -4.4836  -4.4707  -4.4645  -4.4436  -4.4325
    -4.4264  -4.4240  -4.3981  -4.3636  -4.3442  -4.3332  -4.3098  -4.2730
    -4.2602  -4.2457  -4.2355  -4.2059  -4.1867  -4.1600  -4.1436  -4.1080
    -4.1056  -4.0804  -4.0779  -4.0764  -4.0746  -4.0588  -4.0467  -4.0401
    -4.0265  -3.9974  -3.9948  -3.9736  -3.9505  -3.9356  -3.9084  -3.9033
    -3.8995  -3.8873  -3.8744  -3.8558  -3.8239  -3.8056  -3.8015  -3.7850
    -3.7752  -3.7592  -3.7457  -3.7366  -3.7286  -3.7056  -3.6833  -3.6570
    -3.6287  -3.6118  -3.5815  -3.5490  -3.5291  -3.5094  -3.4886  -3.4607
    -3.4291  -3.4055  -3.4025  -3.3794  -3.3636  -3.3540  -3.3126  -3.2896
    -3.2845  -3.2604  -3.2483  -3.2355  -3.1951  -3.1844  -3.1561  -3.1429
    -3.1231  -3.0898  -3.0661  -3.0411  -3.0312  -2.9642  -2.9555  -2.9257
    -2.9053  -2.8971  -2.8849  -2.8757  -2.8541  -2.8464  -2.8275  -2.8157
    -2.8062  -2.7985  -2.7529  -2.7497  -2.7184  -2.6989  -2.6760  -2.6697
[...]
    -2.3132  -2.3051  -2.2928  -2.2732  -2.2444  -2.1819  -2.1754  -2.1190
    -2.0594  -2.0232  -2.0045  -1.9691  -1.9119  -1.1288  -0.3886  -0.2046
    -0.0234   0.0604   0.1561   0.2216   0.2644   0.2794   0.3195   0.3346
     0.4266   0.5259   0.5449   0.5643   0.6015   0.6830   0.7405   0.9605
     0.9648   1.0039   1.0380   1.0559   1.0817   1.0980   1.1367   1.2004
     1.2272   1.2418   1.2546   1.2895   1.3329   1.3446   1.3820   1.3921
     1.4040   1.4059   1.4214   1.4324   1.4432   1.4685   1.4911   1.5067
     1.5459   1.5726   1.5844   1.5910   1.6228   1.6450   1.6723   1.6818
     1.6871   1.7072   1.7141   1.7335   1.7677   1.7950   1.8021   1.8097
     1.8294   1.8378   1.8588   1.8844   1.9001   1.9516   1.9810   1.9971
     2.0253   2.0473   2.0867   2.1067   2.1180   2.1822   2.1923   2.2223
     2.2356   2.2621   2.2802   2.3177   2.3225   2.3406   2.3934   2.4051
     2.4400   2.5151   2.5204   2.5539   2.6058   2.6305   2.6515   2.6717
     2.7066   2.7450   2.7653   2.7746   2.7881   2.8427   2.8505   2.8797
     2.8852   2.8957   2.9204   2.9336   2.9443   2.9775

     the Fermi energy is    -0.6180 ev

!    total energy              =   -9346.28788157 Ry
     Harris-Foulkes estimate   =   -9346.28788157 Ry
     estimated scf accuracy    <          5.7E-09 Ry

     total all-electron energy =    -61349.294427 Ry

     The total energy is the sum of the following terms:

     one-electron contribution =  -98544.72077379 Ry
     hartree contribution      =   49479.75166832 Ry
     xc contribution           =   -1372.47035388 Ry
     ewald contribution        =   43963.81289961 Ry
     one-center paw contrib.   =   -2871.16039179 Ry
     smearing contrib. (-TS)   =      -1.50093004 Ry

     convergence has been achieved in  11 iterations

     negative rho (up, down):  5.662E-02 0.000E+00

     Forces acting on atoms (cartesian axes, Ry/au):

     atom    1 type  1   force =     0.00155361   -0.00097928    0.00091255
     atom    2 type  1   force =    -0.00015797   -0.00021275    0.00008339
     atom    3 type  1   force =     0.00096629   -0.00129690    0.00114712
     atom    4 type  1   force =    -0.00059438   -0.00011480   -0.00100243
     atom    5 type  1   force =     0.00020400    0.00068462   -0.00084235
     atom    6 type  1   force =    -0.00008863   -0.00031455   -0.00102205
     atom    7 type  1   force =    -0.00026586   -0.00109857    0.00029735
     atom    8 type  1   force =     0.00044105   -0.00002890    0.00082789
     atom    9 type  1   force =    -0.00040400   -0.00029516   -0.00043543
     atom   10 type  1   force =     0.00120515    0.00014312   -0.00016871
     atom   11 type  1   force =     0.00033952   -0.00113571    0.00033233
     atom   12 type  1   force =    -0.00045037   -0.00054270   -0.00101680
     atom   13 type  1   force =     0.01339358   -0.01865803    0.01921441
     atom   14 type  1   force =     0.00466092   -0.00904837    0.01451758
     atom   15 type  1   force =     0.01563771   -0.01602097    0.01891806
     atom   16 type  1   force =    -0.00696244    0.00754778   -0.01219513
     atom   17 type  1   force =    -0.00576665    0.00872995   -0.01291189
     atom   18 type  1   force =    -0.00644571    0.00837831   -0.01327010
     atom   19 type  1   force =    -0.00392315   -0.00749996   -0.00824757
     atom   20 type  1   force =     0.00512565    0.00048278   -0.00866986
     atom   21 type  1   force =    -0.00294347    0.00009872   -0.00558024
     atom   22 type  1   force =    -0.00948472    0.00405316    0.18355659
     atom   23 type  1   force =    -0.00107643    0.00461891    0.01948784
     atom   24 type  1   force =     0.00282332    0.01556454    0.18121340
     atom   25 type  2   force =    -0.00047196    0.00119989   -0.00046495
     atom   26 type  2   force =    -0.00078864    0.00106440   -0.00018402
     atom   27 type  2   force =     0.00043247    0.00034661    0.00024692
     atom   28 type  2   force =     0.00044034   -0.00052428   -0.00053065
     atom   29 type  2   force =    -0.00038157    0.00073797   -0.00049293
     atom   30 type  2   force =     0.00034619    0.00000572   -0.00035903
     atom   31 type  2   force =     0.00059057    0.00022160   -0.00055473
     atom   32 type  2   force =     0.00031125    0.00026904   -0.00053107
     atom   33 type  2   force =    -0.00002117    0.00014331   -0.00040084
     atom   34 type  2   force =    -0.00011941    0.00072949   -0.00012310
     atom   35 type  2   force =    -0.00006368    0.00019370    0.00046421
     atom   36 type  2   force =    -0.00054619    0.00130777   -0.00060445
     atom   37 type  2   force =    -0.00025676    0.00034339   -0.00100800
     atom   38 type  2   force =    -0.00040701    0.00010113    0.00034576
     atom   39 type  2   force =    -0.00041206    0.00022878    0.00076516
     atom   40 type  2   force =    -0.00125309    0.00023816   -0.00057326
     atom   41 type  2   force =    -0.00021798   -0.00008855   -0.00001305
     atom   42 type  2   force =    -0.00012334    0.00001812    0.00022127
     atom   43 type  2   force =     0.00043212   -0.00022076   -0.00055399
     atom   44 type  2   force =    -0.00074229    0.00008248   -0.00004002
     atom   45 type  2   force =     0.00011182    0.00050425   -0.00001096
     atom   46 type  2   force =    -0.00006998    0.00031232    0.00146888
     atom   47 type  2   force =     0.00040766   -0.00009224    0.00021762
     atom   48 type  2   force =     0.00019482   -0.00007799    0.00044974
     atom   49 type  2   force =    -0.00058678   -0.00041878   -0.00013421
     atom   50 type  2   force =    -0.00047582    0.00017486    0.00038240
     atom   51 type  2   force =    -0.00085822    0.00076572    0.00066459
     atom   52 type  2   force =    -0.00030124    0.00000878    0.00052317
     atom   53 type  2   force =    -0.00069993    0.00793021    0.00448818
     atom   54 type  2   force =    -0.00393044    0.00501474    0.00443914
     atom   55 type  2   force =    -0.00308125    0.00723442    0.00455628
     atom   56 type  2   force =     0.00395028   -0.00656080   -0.00816590
     atom   57 type  2   force =     0.00535310   -0.00806128   -0.00726195
     atom   58 type  2   force =     0.00352307   -0.00709336   -0.00828405
     atom   59 type  2   force =     0.00615586    0.00078652   -0.01424162
     atom   60 type  2   force =    -0.00328944    0.00727080   -0.00856060
[...]
     atom  159 type  3   force =     0.00002357    0.00061323    0.00024884
     atom  160 type  3   force =     0.00010223   -0.00001121   -0.00222581
     atom  161 type  3   force =     0.00020621    0.00031656   -0.00174918
     atom  162 type  3   force =     0.00028493   -0.00001189   -0.00084921
     atom  163 type  3   force =     0.00026504   -0.00024214   -0.00182664
     atom  164 type  3   force =     0.00010852    0.00027092   -0.00155560
     atom  165 type  3   force =     0.00008843    0.00007971   -0.00158573
     atom  166 type  3   force =     0.00034619   -0.00022212   -0.00090818
     atom  167 type  3   force =     0.00014166    0.00010746   -0.00090648
     atom  168 type  3   force =    -0.00039548    0.00010119   -0.00127354
     atom  169 type  3   force =     0.00030151   -0.00042538    0.00049415
     atom  170 type  3   force =     0.00014528    0.00011065    0.00026966
     atom  171 type  3   force =     0.00010388   -0.00040581    0.00069747
     atom  172 type  3   force =    -0.00023406    0.00010260   -0.00039175
     atom  173 type  3   force =     0.00022551   -0.00001219   -0.00126010

     Total force =     0.007643     Total SCF correction =     0.000284

     bfgs converged in  38 scf cycles and  37 bfgs steps
     (criteria: energy <  1.0E-04 Ry, force <  1.0E-02 Ry/Bohr)

     End of BFGS Geometry Optimization

     Final energy   =   -9346.2878815723 Ry
Begin final coordinates

ATOMIC_POSITIONS (angstrom)
V        3.737585547   1.394367173   7.642303470
V        8.843583416   6.385546986   7.724069013
V        6.289963455   3.884830968   7.646055390
V       -4.323995874   6.060747594   8.824126759
V        9.100385285   3.548056433   8.841747720
V        6.547889679   1.068787942   8.845774874
V       -1.813499255   3.975214991   8.771968848
V       11.645735607   1.483184142   8.805370304
V        0.766281186   6.481627772   8.793150907
V        1.131393460   3.478506615   8.786840767
V       14.533827948   1.047768389   7.857952835
V        3.752145466   6.023107698   8.790618010
V        3.718353919   1.406315738  12.298194300    0   0   0
V        8.813218047   6.402926700  12.295658200    0   0   0
V        6.264103858   3.902635596  12.293923950    0   0   0
V       -4.379303541   6.066394648  13.526392950    0   0   0
V        9.066145619   3.568779669  13.523359850    0   0   0
V        6.519806417   1.070925629  13.528008200    0   0   0
V       -1.675975475   3.885346607  13.523464850    0   0   0
V       11.769980963   1.385175109  13.529815950    0   0   0
V        0.870909298   6.380772352  13.521391800    0   0   0
V        1.124277843   3.547121051  12.292021000    0   0   0
V       14.570010355   1.049934731  12.298049050    0   0   0
V        3.673040784   6.047861198  12.293490300    0   0   0
O       -5.665765261   7.424070553   8.277268928
O        7.747698235   4.913656397   8.264295682
O        5.152786822   2.476888424   8.262040558
O        5.075415154   0.077896370   8.267973233
O       10.197734189   5.009214497   8.280304402
O        7.585423018   2.546995722   8.304228824
O       -0.159092606   4.883560458   8.276824179
O       13.109194854   2.488862542   8.226317274
O        2.393506821   7.325803519   8.222063815
O       -0.437202644   2.555233353   8.407687222
O       13.103472929   0.079687336   8.595832693
O        2.220762701   4.986146933   8.677094958
O       14.441631028   0.960442671   6.242131173
O       -1.889726385   4.107245192  10.375758643
O       11.517370021   1.601699228  10.405653761
O        0.685991969   6.638127691  10.396528920
O       -4.198962535   5.923209114  10.421611306
O        9.218590599   3.420394900  10.440791157
O        6.657076193   0.914670959  10.442620420
O       -3.009887698   5.074699376   8.020258218
O       10.294026237   2.414784316   8.064938190
O        7.836368014   0.004550182   8.075940972
O        2.265477122   2.506796945   7.916046077
O       15.899858057  -0.004410194   8.280349053
O        4.877368639   5.082280712   7.874766296
O        3.843880680   1.301320405   6.036365354
O        8.837008490   6.407946325   6.107833714
O        6.440530658   3.779640513   6.045627387
O       -5.702711833   7.414489293  12.813446450    0   0   0
O        7.743559063   4.914743081  12.802512450    0   0   0
O        5.195681223   2.417873834  12.813408300    0   0   0
O        5.020865853   0.072879298  12.996676350    0   0   0
O       10.114462377   5.069110012  12.992566300    0   0   0
O        7.567117069   2.570186497  12.992403200    0   0   0
O       -0.178099528   4.882225291  12.985999250    0   0   0
O       13.268480699   2.383296980  12.997542250    0   0   0
[...]
C        9.964869240   1.281929112   0.086128700    0   0   0
C        2.710375465   0.304696820   0.057084300    0   0   0
C        9.416103002   5.517902798   0.068268550    0   0   0
C        8.481287482   3.237258286   0.078961400    0   0   0
C       -8.059917026   7.473003928   0.046934300    0   0   0
C        6.998098364   5.192037996   0.052646300    0   0   0
C        6.063232849   2.911323115   0.062163500    0   0   0
C        5.514579351   7.147125187   0.049028000    0   0   0
C        4.579882716   4.866215011   0.045568250    0   0   0
C        3.645205934   2.585482894   0.048629700    0   0   0
C        3.096342560   6.821178251   0.061993750    0   0   0
C        2.161635558   4.540299475   0.051696750    0   0   0
C        0.678014681   6.495300559   0.078285900    0   0   0
C        7.546668387   0.956377262   0.085890000    0   0   0
C        5.128370890   0.630612506   0.073366650    0   0   0
End final coordinates

     Writing output data file interface.save/

     General routines

     Parallel routines

   This run was terminated on:   2:33:12  28Mar2024

   JOB DONE.