     Program PWSCF v.6.4.1 starts on 26May2024 at 20:34:52

     R & G space division:  proc/nbgrp/npool/nimage =      32
     Reading input from v16o39.rlx.in
Warning: card &CELL ignored
Warning: card     CELL_DYNAMICS  = "BFGS" ignored
Warning: card / ignored

     Current dimensions of program PWSCF are:
     Max number of different atomic species (ntypx) = 10
     Max number of k-points (npk) =  40000
     Max angular momentum in pseudopotentials (lmaxx) =  3
               file V.pbe-spnl-kjpaw_psl.1.0.0.UPF: wavefunction(s)  3P 3D renormalized
               file O.pbe-n-kjpaw_psl.1.0.0.UPF: wavefunction(s)  2S 2P renormalized

     Parameters for Dispersion (Grimme-D2) Correction:
       atom      VdW radius       C_6

        V          2.952        374.666
        O          2.536         24.284

     Subspace diagonalization in iterative solution of the eigenvalue problem:
     one sub-group per band group will be used

     bravais-lattice index     =            8
     lattice parameter (alat)  =      13.5232  a.u.
     unit-cell volume          =    4911.3436 (a.u.)^3
     number of atoms/cell      =           55
     number of atomic types    =            2
     number of electrons       =       442.00
     number of Kohn-Sham states=          265
     kinetic-energy cutoff     =      65.0000  Ry
     charge density cutoff     =     650.0000  Ry
     convergence threshold     =      1.0E-10
     mixing beta               =       0.7000
     number of iterations used =            8  plain     mixing
     Exchange-correlation      = SLA PW PBX PBC ( 1  4  3  4 0 0)
     nstep                     =          500

     celldm(1)=  13.523246  celldm(2)=   1.231081  celldm(3)=   1.613135
     celldm(4)=   0.000000  celldm(5)=   0.000000  celldm(6)=   0.000000

     crystal axes: (cart. coord. in units of alat)
               a(1) = (   1.000000   0.000000   0.000000 )
               a(2) = (   0.000000   1.231081   0.000000 )
               a(3) = (   0.000000   0.000000   1.613135 )

     reciprocal axes: (cart. coord. in units 2 pi/alat)
               b(1) = (  1.000000  0.000000  0.000000 )
               b(2) = (  0.000000  0.812294  0.000000 )
               b(3) = (  0.000000  0.000000  0.619911 )

     PseudoPot. # 1 for V  read from file:
     /home/mpicuntureo/pseudos/V.pbe-spnl-kjpaw_psl.1.0.0.UPF
     MD5 check sum: 069c5df6a0a9f40a694a86a6cab52b89
     Pseudo is Projector augmented-wave + core cor, Zval = 13.0
     Generated using "atomic" code by A. Dal Corso v.6.3
     Shape of augmentation charge: PSQ
     Using radial grid of 1181 points,  6 beta functions with:
                l(1) =   0
                l(2) =   0
                l(3) =   1
                l(4) =   1
                l(5) =   2
                l(6) =   2
     Q(r) pseudized with 0 coefficients

     PseudoPot. # 2 for O  read from file:
     /home/mpicuntureo/pseudos/O.pbe-n-kjpaw_psl.1.0.0.UPF
     MD5 check sum: e99d9cef9b487d1ca56f5b95ecd0fd7a
     Pseudo is Projector augmented-wave + core cor, Zval =  6.0
     Generated using "atomic" code by A. Dal Corso v.6.3
     Shape of augmentation charge: PSQ
     Using radial grid of 1095 points,  4 beta functions with:
                l(1) =   0
                l(2) =   0
                l(3) =   1
                l(4) =   1
     Q(r) pseudized with 0 coefficients

     atomic species   valence    mass     pseudopotential
        V             13.00    50.94150     V ( 1.00)
        O              6.00    15.99940     O ( 1.00)

     Simplified LDA+U calculation (l_max = 2) with parameters (eV):
     atomic species    L          U    alpha       J0     beta
        V              2     4.0000   0.0000   0.0000   0.0000

      2 Sym. Ops. (no inversion) found

   Cartesian axes

     site n.     atom                  positions (alat units)
         1           V   tau(   1) = (   0.0000000   0.2428105   1.0470345  )
         2           V   tau(   2) = (   0.2500184   0.3864224   1.3717392  )
         3           V   tau(   3) = (   0.2499499   0.3858333   0.2407071  )
         4           V   tau(   4) = (   0.0000000   0.2437213   0.5674824  )
         5           O   tau(   5) = (   0.2501519   0.3030350   1.0979455  )
         6           O   tau(   6) = (   0.0000000   0.3111268   1.3208082  )
         7           O   tau(   7) = (   0.0000000   0.3121020   0.2935589  )
         8           O   tau(   8) = (   0.2522858   0.3045285   0.5162992  )
         9           O   tau(   9) = (   0.0000000   0.0052254   0.5689076  )
        10           O   tau(  10) = (   0.2529267   0.5999350   0.2402459  )
        11           O   tau(  11) = (   0.2499610   0.5994588   1.3757138  )
        12           O   tau(  12) = (   0.2505853   0.3127655   0.0006630  )
        13           O   tau(  13) = (   0.0000000   0.3018850   0.8066731  )
        14           O   tau(  14) = (   0.0000000   0.0032708   1.0435435  )
        15           V   tau(  15) = (   0.0000000   0.8447850   1.0471433  )
        16           V   tau(  16) = (   0.2489263   0.9884628   1.3712559  )
        17           V   tau(  17) = (   0.2482191   0.9863217   0.2354201  )
        18           V   tau(  18) = (   0.0000000   0.8420407   0.5662419  )
        19           O   tau(  19) = (   0.2507994   0.9200034   1.0977520  )
        20           O   tau(  20) = (   0.0000000   0.9286740   1.3199580  )
        21           O   tau(  21) = (   0.0000000   0.9272264   0.2921399  )
        22           O   tau(  22) = (   0.2504589   0.9108985   0.5133408  )
        23           O   tau(  23) = (   0.0000000   0.6285693   0.5705624  )
        24           O   tau(  24) = (   0.2501680   1.2251892   0.2378683  )
        25           O   tau(  25) = (   0.2500818   1.2284524   1.3757432  )
        26           O   tau(  26) = (   0.2487910   0.9286574  -0.0021073  )
        27           O   tau(  27) = (   0.0000000   0.9192662   0.8055275  )
        28           O   tau(  28) = (   0.0000000   0.6320628   1.0434066  )
        29           V   tau(  29) = (   0.5000000   0.2446657   1.0456902  )
        30           V   tau(  30) = (   0.7499816   0.3864224   1.3717392  )
        31           V   tau(  31) = (   0.7500502   0.3858333   0.2407071  )
        32           V   tau(  32) = (   0.5000000   0.2326447   0.5666796  )
        33           O   tau(  33) = (   0.7498481   0.3030350   1.0979455  )
        34           O   tau(  34) = (   0.5000000   0.3102908   1.3198057  )
        35           O   tau(  35) = (   0.5000000   0.3116801   0.2958013  )
        36           O   tau(  36) = (   0.7477142   0.3045285   0.5162992  )
        37           O   tau(  37) = (   0.5000000  -0.0004529   0.5727315  )
        38           O   tau(  38) = (   0.7470733   0.5999350   0.2402459  )
        39           O   tau(  39) = (   0.7500390   0.5994588   1.3757138  )
        40           O   tau(  40) = (   0.7494147   0.3127655   0.0006630  )
        41           O   tau(  41) = (   0.5000000   0.3070727   0.8019343  )
        42           O   tau(  42) = (   0.5000000   0.0058220   1.0390269  )
        43           V   tau(  43) = (   0.5000000   0.8393733   1.0568669  )
        44           V   tau(  44) = (   0.7510737   0.9884628   1.3712559  )
        45           V   tau(  45) = (   0.7517809   0.9863217   0.2354201  )
        46           V   tau(  46) = (   0.5000000   0.9069653   0.5661297  )
        47           O   tau(  47) = (   0.7492006   0.9200034   1.0977520  )
        48           O   tau(  48) = (   0.5000000   0.9275498   1.3219060  )
        49           O   tau(  49) = (   0.5000000   0.9286279   0.2893416  )
        50           O   tau(  50) = (   0.7495411   0.9108985   0.5133408  )
        51           O   tau(  51) = (   0.7498320   1.2251892   0.2378683  )
        52           O   tau(  52) = (   0.7499182   1.2284524   1.3757432  )
        53           O   tau(  53) = (   0.7512090   0.9286574  -0.0021073  )
        54           O   tau(  54) = (   0.5000000   0.8988423   0.8065068  )
        55           O   tau(  55) = (   0.5000000   0.6268402   1.0516361  )

     number of k points=     8  gaussian smearing, width (Ry)=  0.0500
                       cart. coord. in units 2pi/alat
        k(    1) = (   0.0000000   0.0000000   0.0000000), wk =   0.2500000
        k(    2) = (   0.0000000   0.0000000  -0.3099554), wk =   0.2500000
        k(    3) = (   0.0000000  -0.4061470   0.0000000), wk =   0.2500000
        k(    4) = (   0.0000000  -0.4061470  -0.3099554), wk =   0.2500000
        k(    5) = (  -0.5000000   0.0000000   0.0000000), wk =   0.2500000
        k(    6) = (  -0.5000000   0.0000000  -0.3099554), wk =   0.2500000
        k(    7) = (  -0.5000000  -0.4061470   0.0000000), wk =   0.2500000
        k(    8) = (  -0.5000000  -0.4061470  -0.3099554), wk =   0.2500000

     Check: negative core charge=   -0.000001

     Initial potential from superposition of free atoms

     starting charge  441.98541, renormalised to  442.00000
     Number of +U iterations with fixed ns =  0
     Starting occupations:
 --- enter write_ns ---
 LDA+U parameters:
U( 1)     =  4.00000000
alpha( 1) =  0.00000000
atom    1   Tr[ns(na)] =   3.00000
    eigenvalues:
  0.300  0.300  0.300  0.300  0.300
    eigenvectors:
  1.000  0.000  0.000  0.000  0.000
  0.000  1.000  0.000  0.000  0.000
  0.000  0.000  1.000  0.000  0.000
  0.000  0.000  0.000  1.000  0.000
  0.000  0.000  0.000  0.000  1.000
    occupations:
  0.300  0.000  0.000  0.000  0.000
  0.000  0.300  0.000  0.000  0.000
  0.000  0.000  0.300  0.000  0.000
  0.000  0.000  0.000  0.300  0.000
  0.000  0.000  0.000  0.000  0.300
atom    2   Tr[ns(na)] =   3.00000
    eigenvalues:
  0.300  0.300  0.300  0.300  0.300
    eigenvectors:
  1.000  0.000  0.000  0.000  0.000
  0.000  1.000  0.000  0.000  0.000
  0.000  0.000  1.000  0.000  0.000
  0.000  0.000  0.000  1.000  0.000
  0.000  0.000  0.000  0.000  1.000
    occupations:
  0.300  0.000  0.000  0.000  0.000
  0.000  0.300  0.000  0.000  0.000
  0.000  0.000  0.300  0.000  0.000
  0.000  0.000  0.000  0.300  0.000
  0.000  0.000  0.000  0.000  0.300
atom    3   Tr[ns(na)] =   3.00000
    eigenvalues:
  0.300  0.300  0.300  0.300  0.300
    eigenvectors:
  1.000  0.000  0.000  0.000  0.000
  0.000  1.000  0.000  0.000  0.000
  0.000  0.000  1.000  0.000  0.000
  0.000  0.000  0.000  1.000  0.000
  0.000  0.000  0.000  0.000  1.000
    occupations:
  0.300  0.000  0.000  0.000  0.000
  0.000  0.300  0.000  0.000  0.000
  0.000  0.000  0.300  0.000  0.000
  0.000  0.000  0.000  0.300  0.000
  0.000  0.000  0.000  0.000  0.300
atom    4   Tr[ns(na)] =   3.00000
    eigenvalues:
  0.300  0.300  0.300  0.300  0.300
    eigenvectors:
  1.000  0.000  0.000  0.000  0.000
  0.000  1.000  0.000  0.000  0.000
  0.000  0.000  1.000  0.000  0.000
  0.000  0.000  0.000  1.000  0.000
  0.000  0.000  0.000  0.000  1.000
    occupations:
  0.300  0.000  0.000  0.000  0.000
  0.000  0.300  0.000  0.000  0.000
  0.000  0.000  0.300  0.000  0.000
  0.000  0.000  0.000  0.300  0.000
  0.000  0.000  0.000  0.000  0.300
atom   15   Tr[ns(na)] =   3.00000
    eigenvalues:
[...]
    eigenvectors:
  0.000  0.000  0.251  0.438  0.311
  0.999  0.001  0.000  0.000  0.000
  0.000  0.000  0.625  0.375  0.000
  0.000  0.000  0.124  0.187  0.689
  0.001  0.999  0.000  0.000  0.000
    occupations:
  0.502 -0.000  0.006  0.029  0.000
 -0.000  0.317 -0.000  0.000  0.004
  0.006 -0.000  0.478 -0.005  0.000
  0.029  0.000 -0.005  0.525 -0.000
  0.000  0.004  0.000 -0.000  0.467
atom   16   Tr[ns(na)] =   4.57445
    eigenvalues:
  0.316  0.471  0.471  0.486  0.544
    eigenvectors:
  0.000  0.169  0.039  0.480  0.311
  1.000  0.000  0.000  0.000  0.000
  0.000  0.492  0.203  0.305  0.000
  0.000  0.072  0.027  0.213  0.688
  0.000  0.267  0.731  0.002  0.001
    occupations:
  0.501  0.001  0.006  0.029 -0.002
  0.001  0.316  0.003 -0.001  0.002
  0.006  0.003  0.475 -0.004 -0.000
  0.029 -0.001 -0.004  0.524 -0.001
 -0.002  0.002 -0.000 -0.001  0.471
atom   17   Tr[ns(na)] =   4.58933
    eigenvalues:
  0.333  0.459  0.465  0.494  0.544
    eigenvectors:
  0.000  0.182  0.010  0.490  0.319
  0.996  0.002  0.001  0.000  0.000
  0.001  0.600  0.086  0.310  0.003
  0.000  0.131  0.001  0.193  0.676
  0.003  0.085  0.902  0.008  0.003
    occupations:
  0.503 -0.001 -0.011  0.029 -0.000
 -0.001  0.333 -0.004  0.002 -0.007
 -0.011 -0.004  0.471  0.012  0.000
  0.029  0.002  0.012  0.523  0.005
 -0.000 -0.007  0.000  0.005  0.464
atom   18   Tr[ns(na)] =   4.57156
    eigenvalues:
  0.313  0.468  0.474  0.485  0.545
    eigenvectors:
  0.000  0.318  0.000  0.216  0.466
  1.000  0.000  0.000  0.000  0.000
  0.000  0.422  0.000  0.578  0.000
  0.000  0.260  0.000  0.206  0.534
  0.000  0.000  1.000  0.000  0.000
    occupations:
  0.508 -0.000 -0.007  0.035  0.000
 -0.000  0.313 -0.000  0.000 -0.001
 -0.007 -0.000  0.478  0.005  0.000
  0.035  0.000  0.005  0.513 -0.000
  0.000 -0.001  0.000 -0.000  0.474
atom   29   Tr[ns(na)] =   4.56057
    eigenvalues:
  0.323  0.462  0.471  0.480  0.543
    eigenvectors:
  0.000  0.007  0.000  0.808  0.185
  0.999  0.000  0.001  0.000  0.000
  0.000  0.971  0.000  0.019  0.010
  0.000  0.022  0.000  0.173  0.805
  0.001  0.000  0.999  0.000  0.000
    occupations:
  0.492 -0.000  0.001  0.025  0.000
 -0.000  0.323 -0.000  0.000 -0.004
  0.001 -0.000  0.463  0.008  0.000
  0.025  0.000  0.008  0.531 -0.000
  0.000 -0.004  0.000 -0.000  0.471
atom   30   Tr[ns(na)] =   4.57197
    eigenvalues:
  0.317  0.468  0.470  0.487  0.544
    eigenvectors:
  0.000  0.158  0.000  0.520  0.322
  0.999  0.000  0.001  0.000  0.000
  0.000  0.737  0.001  0.260  0.002
  0.000  0.104  0.000  0.219  0.676
  0.001  0.001  0.998  0.000  0.000
    occupations:
  0.502  0.001  0.005  0.029  0.000
  0.001  0.317  0.001  0.000  0.004
  0.005  0.001  0.473 -0.008  0.000
  0.029  0.000 -0.008  0.524 -0.000
  0.000  0.004  0.000 -0.000  0.470
atom   31   Tr[ns(na)] =   4.57895
    eigenvalues:
  0.328  0.463  0.466  0.490  0.542
    eigenvectors:
  0.000  0.260  0.001  0.414  0.325
  0.994  0.000  0.005  0.001  0.000
  0.002  0.526  0.048  0.419  0.005
  0.000  0.158  0.018  0.161  0.664
  0.004  0.056  0.928  0.005  0.006
    occupations:
  0.500  0.001 -0.008  0.030  0.005
  0.001  0.329 -0.007 -0.000 -0.009
 -0.008 -0.007  0.475  0.011 -0.001
  0.030 -0.000  0.011  0.520  0.004
  0.005 -0.009 -0.001  0.004  0.466
atom   32   Tr[ns(na)] =   4.48983
    eigenvalues:
  0.382  0.432  0.455  0.463  0.513
    eigenvectors:
  0.000  0.015  0.115  0.000  0.870
  0.846  0.000  0.000  0.154  0.000
  0.000  0.837  0.162  0.000  0.001
  0.000  0.148  0.723  0.000  0.129
  0.154  0.000  0.000  0.846  0.000
    occupations:
  0.505 -0.000  0.001 -0.020  0.000
 -0.000  0.394 -0.000  0.000 -0.030
  0.001 -0.000  0.435  0.009  0.000
 -0.020  0.000  0.009  0.459 -0.000
  0.000 -0.030  0.000 -0.000  0.451
atom   43   Tr[ns(na)] =   4.56175
    eigenvalues:
  0.321  0.473  0.475  0.475  0.536
    eigenvectors:
  0.000  0.002  0.812  0.000  0.186
  0.999  0.000  0.000  0.001  0.000
  0.000  0.994  0.004  0.000  0.001
  0.000  0.003  0.183  0.000  0.813
  0.001  0.000  0.000  0.999  0.000
    occupations:
  0.487 -0.000 -0.001  0.024  0.000
 -0.000  0.321 -0.000  0.000  0.005
 -0.001 -0.000  0.473 -0.002  0.000
  0.024  0.000 -0.002  0.525 -0.000
  0.000  0.005  0.000 -0.000  0.475
atom   44   Tr[ns(na)] =   4.57445
    eigenvalues:
  0.316  0.471  0.471  0.486  0.544
    eigenvectors:
  0.000  0.169  0.039  0.480  0.311
  1.000  0.000  0.000  0.000  0.000
  0.000  0.492  0.203  0.305  0.000
  0.000  0.072  0.027  0.213  0.688
  0.000  0.267  0.731  0.002  0.001
    occupations:
  0.501 -0.001  0.006  0.029  0.002
 -0.001  0.316 -0.003  0.001  0.002
  0.006 -0.003  0.475 -0.004  0.000
  0.029  0.001 -0.004  0.524  0.001
  0.002  0.002  0.000  0.001  0.471
atom   45   Tr[ns(na)] =   4.58933
    eigenvalues:
  0.333  0.459  0.465  0.494  0.544
    eigenvectors:
  0.000  0.182  0.010  0.490  0.319
  0.996  0.002  0.001  0.000  0.000
  0.001  0.600  0.086  0.310  0.003
  0.000  0.131  0.001  0.193  0.676
  0.003  0.085  0.902  0.008  0.003
    occupations:
  0.503  0.001 -0.011  0.029  0.000
  0.001  0.333  0.004 -0.002 -0.007
 -0.011  0.004  0.471  0.012 -0.000
  0.029 -0.002  0.012  0.523 -0.005
  0.000 -0.007 -0.000 -0.005  0.464
atom   46   Tr[ns(na)] =   4.50245
    eigenvalues:
  0.393  0.416  0.461  0.464  0.517
    eigenvectors:
  0.000  0.031  0.188  0.000  0.781
  0.918  0.000  0.000  0.082  0.000
  0.000  0.479  0.481  0.000  0.041
  0.000  0.490  0.332  0.000  0.179
  0.082  0.000  0.000  0.918  0.000
    occupations:
  0.503 -0.000  0.004 -0.026  0.000
 -0.000  0.399 -0.000  0.000  0.019
  0.004 -0.000  0.442 -0.027  0.000
 -0.026  0.000 -0.027  0.449 -0.000
  0.000  0.019  0.000 -0.000  0.458
N of occupied +U levels =   73.050954
 --- exit write_ns ---

[...]

          k = 0.0000-0.4061-0.3100 ( 43472 PWs)   bands (ev):

[...]

          k =-0.5000-0.4061-0.3100 ( 43472 PWs)   bands (ev):

   -60.3406 -60.3375 -60.1088 -60.1018 -60.0876 -60.0550 -60.0539 -60.0319
   -60.0310 -60.0284 -60.0251 -60.0221 -60.0173 -60.0131 -60.0127 -59.9985
   -34.2957 -34.2417 -34.2307 -34.1963 -34.1462 -34.1234 -34.1109 -34.0980
   -34.0474 -34.0402 -34.0367 -34.0168 -34.0159 -34.0143 -34.0112 -33.9997
   -33.9993 -33.9987 -33.9933 -33.9825 -33.9789 -33.9702 -33.9603 -33.9581
   -33.9478 -33.9424 -33.9295 -33.9282 -33.9200 -33.9156 -33.9082 -33.8932
   -33.8886 -33.8848 -33.8714 -33.8711 -33.8662 -33.8605 -33.8533 -33.8531
   -33.8528 -33.8481 -33.8368 -33.8360 -33.8358 -33.8341 -33.8194 -33.8171
   -13.2855 -13.1494 -13.0876 -13.0581 -13.0556 -13.0355 -13.0306 -12.9900
   -12.8585 -12.4563 -12.3653 -12.2265 -12.2253 -12.2205 -12.2056 -12.2044
   -12.1872 -12.1605 -12.1576 -12.1498 -12.1424 -12.1396 -12.1208 -12.1141
   -12.1119 -11.9503 -11.8981 -11.8634 -11.8462 -11.8435 -11.8404 -11.7805
   -11.7648 -11.7526 -11.7367 -11.7147 -11.7071 -11.7045 -11.6982  -0.7546
    -0.7415  -0.6983  -0.6916  -0.6744  -0.6722  -0.6130  -0.6095  -0.5255
    -0.3781  -0.1688  -0.1330  -0.0400  -0.0392  -0.0318  -0.0255  -0.0112
     0.1465   0.2303   0.2710   0.2947   0.3094   0.3342   0.3380   0.3496
     0.3916   0.4475   0.4976   0.5125   0.5701   0.6272   0.6311   0.7028
     0.7370   0.7980   0.8135   0.8275   0.8330   0.8381   0.8839   0.8867
     0.9469   0.9527   0.9660   0.9852   0.9977   1.0130   1.0973   1.1512
     1.3326   1.3964   1.4678   1.4887   1.5047   1.5256   1.5647   1.6721
     1.7868   1.8496   1.9022   1.9223   1.9263   1.9510   1.9809   2.0009
     2.0130   2.0446   2.0808   2.0980   2.1392   2.1520   2.1564   2.1719
     2.1950   2.2289   2.2381   2.2722   2.2970   2.3755   2.5186   2.5273
     2.5400   2.6060   2.6078   2.6144   2.6709   2.7021   2.8614   2.8842
     2.9059   2.9439   2.9526   2.9941   3.0161   3.2264   3.2741   3.3770
     3.3913   3.4122   3.4212   3.4439   3.4528   3.4756   3.5018   3.5517
     3.5719   3.5746   3.5836   3.5986   3.6769   3.6858   3.7143   3.7219
     3.7343   3.7586   3.7831   3.8013   6.2681   6.3790   6.4288   6.5356
     6.5400   6.6161   6.6569   6.6882   6.6988   6.7412   7.1550   7.2774
     7.3099   7.3318   7.3347   7.3816   7.4168   7.4188   7.4353   7.4426
     7.4595   7.5043   7.5225   7.5267   7.5668   7.5850   7.6596   7.6723
     7.7099   7.7402   7.7547   7.7604   7.7653   7.8148   7.8362   7.8460
     7.8918   7.8997   7.9017   7.9364   7.9574   7.9717   8.0068   8.0320
     8.0370

     the Fermi energy is     5.8582 ev

!    total energy              =   -5047.84180933 Ry
     Harris-Foulkes estimate   =   -5047.84180933 Ry
     estimated scf accuracy    <          8.1E-13 Ry

     total all-electron energy =    -36246.410588 Ry

     The total energy is the sum of the following terms:

     one-electron contribution =   -2372.87511073 Ry
     hartree contribution      =    1354.45646325 Ry
     xc contribution           =    -612.16166192 Ry
     ewald contribution        =   -1930.41539017 Ry
     Dispersion Correction     =      -0.50555768 Ry
     Hubbard energy            =       5.71976705 Ry
     one-center paw contrib.   =   -1491.94430404 Ry
     smearing contrib. (-TS)   =      -0.11601508 Ry

     convergence has been achieved in  14 iterations

     negative rho (up, down):  1.604E-03 0.000E+00

     Forces acting on atoms (cartesian axes, Ry/au):

     atom    1 type  1   force =     0.00000000   -0.00000556   -0.00000507
     atom    2 type  1   force =     0.00000101   -0.00001043   -0.00000092
     atom    3 type  1   force =     0.00000119   -0.00000448   -0.00000179
     atom    4 type  1   force =     0.00000000   -0.00000677   -0.00000830
     atom    5 type  2   force =     0.00000129    0.00000527   -0.00000004
     atom    6 type  2   force =     0.00000000    0.00000793   -0.00000969
     atom    7 type  2   force =     0.00000000    0.00000535   -0.00001640
     atom    8 type  2   force =    -0.00000248    0.00000803    0.00000368
     atom    9 type  2   force =     0.00000000   -0.00000043   -0.00001431
     atom   10 type  2   force =     0.00000147    0.00001192    0.00000943
     atom   11 type  2   force =    -0.00000175    0.00001041    0.00000626
     atom   12 type  2   force =    -0.00000042   -0.00000152    0.00000043
     atom   13 type  2   force =     0.00000000    0.00000319   -0.00000594
     atom   14 type  2   force =     0.00000000   -0.00000338    0.00000208
     atom   15 type  1   force =     0.00000000    0.00000241   -0.00000568
     atom   16 type  1   force =    -0.00000146    0.00000527    0.00000148
     atom   17 type  1   force =     0.00000467   -0.00000053    0.00000077
     atom   18 type  1   force =     0.00000000    0.00000610   -0.00000823
     atom   19 type  2   force =     0.00000303    0.00000881    0.00000129
     atom   20 type  2   force =     0.00000000   -0.00000607   -0.00000182
     atom   21 type  2   force =     0.00000000   -0.00001415   -0.00000403
     atom   22 type  2   force =     0.00000223   -0.00000180   -0.00000155
     atom   23 type  2   force =     0.00000000   -0.00001108    0.00001249
     atom   24 type  2   force =     0.00000778   -0.00000511    0.00000047
     atom   25 type  2   force =    -0.00000326    0.00000225    0.00000496
     atom   26 type  2   force =    -0.00000080   -0.00000945    0.00000105
     atom   27 type  2   force =     0.00000000   -0.00000291   -0.00000125
     atom   28 type  2   force =     0.00000000   -0.00001789   -0.00000175
     atom   29 type  1   force =     0.00000000   -0.00000817   -0.00000284
     atom   30 type  1   force =    -0.00000101   -0.00001043   -0.00000092
     atom   31 type  1   force =    -0.00000119   -0.00000448   -0.00000179
     atom   32 type  1   force =     0.00000000    0.00000642    0.00000039
     atom   33 type  2   force =    -0.00000129    0.00000527   -0.00000004
     atom   34 type  2   force =     0.00000000    0.00000039   -0.00000089
     atom   35 type  2   force =     0.00000000   -0.00000437    0.00000088
     atom   36 type  2   force =     0.00000248    0.00000803    0.00000368
     atom   37 type  2   force =     0.00000000    0.00000738   -0.00000212
     atom   38 type  2   force =    -0.00000147    0.00001192    0.00000943
     atom   39 type  2   force =     0.00000175    0.00001041    0.00000626
     atom   40 type  2   force =     0.00000042   -0.00000152    0.00000043
     atom   41 type  2   force =     0.00000000    0.00000191    0.00000565
     atom   42 type  2   force =     0.00000000   -0.00000624   -0.00000499
     atom   43 type  1   force =     0.00000000    0.00000951    0.00000552
     atom   44 type  1   force =     0.00000146    0.00000527    0.00000148
     atom   45 type  1   force =    -0.00000467   -0.00000053    0.00000077
     atom   46 type  1   force =     0.00000000    0.00000530    0.00000913
     atom   47 type  2   force =    -0.00000303    0.00000881    0.00000129
     atom   48 type  2   force =     0.00000000    0.00000368    0.00000050
     atom   49 type  2   force =     0.00000000    0.00000318    0.00000615
     atom   50 type  2   force =    -0.00000223   -0.00000180   -0.00000155
     atom   51 type  2   force =    -0.00000778   -0.00000511    0.00000047
     atom   52 type  2   force =     0.00000326    0.00000225    0.00000496
     atom   53 type  2   force =     0.00000080   -0.00000945    0.00000105
     atom   54 type  2   force =     0.00000000   -0.00000492    0.00000196
     atom   55 type  2   force =     0.00000000   -0.00000812   -0.00000251

     Total force =     0.000068     Total SCF correction =     0.000003
     Message from routine bfgs:
     history already reset at previous step: stopping

     bfgs converged in  67 scf cycles and  66 bfgs steps
     (criteria: energy <  1.0E-04 Ry, force <  1.0E-05 Ry/Bohr)

     End of BFGS Geometry Optimization

     Final energy   =   -5047.8418093348 Ry
Begin final coordinates

ATOMIC_POSITIONS (angstrom)
V        0.000000000   1.668744172   7.501443256
V        1.784214586   2.705981736   9.823976584
V        1.796919619   2.721356910   1.729513933
V        0.000000000   1.681458598   4.067343338
O        1.787865401   2.181511574   7.851089934
O        0.000000000   2.190940991   9.467131114
O        0.000000000   2.277736490   2.127304662
O        1.819732523   2.149892129   3.704817671
O        0.000000000   0.087180238   4.074210769
O        1.871082659   4.313893091   1.749932568
O        1.776941329   4.296110145   9.831027837
O        1.798041943   2.243833523   0.016768459
O        0.000000000   2.166946913   5.775034531
O        0.000000000   0.077671002   7.470179978
V        0.000000000   6.081281269   7.473665685
V        1.789068390   7.111835107   9.788176665
V        1.764980526   7.096481504   1.672688506
V        0.000000000   6.098624060   4.055202722
O        1.805278966   6.567330606   7.826071971
O        0.000000000   6.626589850   9.423629159
O        0.000000000   6.554184326   2.089772738
O        1.816919252   6.592262426   3.693383489
O        0.000000000   4.506547408   4.096538902
O        1.704696324   8.689575229   1.673086231
O        1.812852987   8.701589788   9.823972521
O        1.789920497   6.606486065  -0.030483681
O        0.000000000   6.608154901   5.761002625
O        0.000000000   4.492146753   7.436471328
V        3.578096708   1.706777279   7.504417309
V        5.371978844   2.705981736   9.823976584
V        5.359273812   2.721356910   1.729513933
V        3.578096708   1.671527639   4.079589348
O        5.368328030   2.181511574   7.851089934
O        3.578096708   2.188937390   9.452794225
O        3.578096708   2.178836125   2.131882174
O        5.336460908   2.149892129   3.704817671
O        3.578096708  -0.066114751   4.215907904
O        5.285110771   4.313893091   1.749932568
O        5.379252101   4.296110145   9.831027837
O        5.358151487   2.243833523   0.016768459
O        3.578096708   2.229476424   5.720145190
O        3.578096708   0.118921413   7.388624051
V        3.578096708   6.000811395   7.535209556
V        5.367125041   7.111835107   9.788176665
V        5.391212904   7.096481504   1.672688506
V        3.578096708   6.976474276   4.110629403
O        5.350914465   6.567330606   7.826071971
O        3.578096708   6.577806308   9.438181456
O        3.578096708   6.740553907   2.105030972
O        5.339274179   6.592262426   3.693383489
O        5.451497107   8.689575229   1.673086231
O        5.343340444   8.701589788   9.823972521
O        5.366272933   6.606486065  -0.030483681
O        3.578096708   6.376354318   5.720160374
O        3.578096708   4.409457383   7.538046077
End final coordinates

     Writing output data file ovac1.save/

     General routines

     Parallel routines

     Hubbard U routines

   This run was terminated on:  11:28: 7  30May2024

   JOB DONE.