     Program PWSCF v.6.4.1 starts on 10Mar2024 at 23:29:11

     R & G space division:  proc/nbgrp/npool/nimage =      32
     Reading input from Li_CNT.rlx.in
Warning: card &CELL ignored
Warning: card     CELL_DYNAMICS  = "BFGS" ignored
Warning: card / ignored

     Current dimensions of program PWSCF are:
     Max number of different atomic species (ntypx) = 10
     Max number of k-points (npk) =  40000
     Max angular momentum in pseudopotentials (lmaxx) =  3

     IMPORTANT: XC functional enforced from input :
     Exchange-correlation      = VDW-DF ( 1  4  4  0 1 0)
     Any further DFT definition will be discarded
     Please, verify this is what you really want

               file C.pbesol-n-kjpaw_psl.1.0.0.UPF: wavefunction(s)  2S 2P renormalized

     Subspace diagonalization in iterative solution of the eigenvalue problem:
     one sub-group per band group will be used

     bravais-lattice index     =            0
     lattice parameter (alat)  =      14.0377  a.u.
     unit-cell volume          =    2220.8687 (a.u.)^3
     number of atoms/cell      =           37
     number of atomic types    =            2
     number of electrons       =       147.00
     number of Kohn-Sham states=           89
     kinetic-energy cutoff     =      40.0000  Ry
     charge density cutoff     =     500.0000  Ry
     convergence threshold     =      1.0E-06
     mixing beta               =       0.4000
     number of iterations used =            8  plain     mixing
     Exchange-correlation      = VDW-DF ( 1  4  4  0 1 0)
     nstep                     =          500

     celldm(1)=  14.037750  celldm(2)=   0.000000  celldm(3)=   0.000000
     celldm(4)=   0.000000  celldm(5)=   0.000000  celldm(6)=   0.000000

     crystal axes: (cart. coord. in units of alat)
               a(1) = (   1.000000   0.000000  -0.000000 )
               a(2) = (  -0.500000   0.866025  -0.000000 )
               a(3) = (   0.000000  -0.000000   0.927043 )

     reciprocal axes: (cart. coord. in units 2 pi/alat)
               b(1) = (  1.000000  0.577350  0.000000 )
               b(2) = (  0.000000  1.154701  0.000000 )
               b(3) = (  0.000000  0.000000  1.078699 )

     PseudoPot. # 1 for C  read from file:
     /home/mpicuntureo/pseudos/C.pbesol-n-kjpaw_psl.1.0.0.UPF
     MD5 check sum: f9b2fe17d1f478429498b05d17159f9e
     Pseudo is Projector augmented-wave + core cor, Zval =  4.0
     Generated using "atomic" code by A. Dal Corso v.6.3
     Shape of augmentation charge: PSQ
     Using radial grid of 1073 points,  4 beta functions with:
                l(1) =   0
                l(2) =   0
                l(3) =   1
                l(4) =   1
     Q(r) pseudized with 0 coefficients

     PseudoPot. # 2 for Li read from file:
     /home/mpicuntureo/pseudos/Li.pbesol-sl-kjpaw_psl.1.0.0.UPF
     MD5 check sum: eef8ea5bb9be16d4f57185b44daa939b
     Pseudo is Projector augmented-wave, Zval =  3.0
     Generated using "atomic" code by A. Dal Corso v.6.3
     Shape of augmentation charge: PSQ
     Using radial grid of 1017 points,  4 beta functions with:
                l(1) =   0
                l(2) =   0
                l(3) =   1
                l(4) =   1
     Q(r) pseudized with 0 coefficients

     vdW kernel table read from file vdW_kernel_table
     MD5 check sum: 8c4337f4b28e1601c069d7ef7b6561bc

     atomic species   valence    mass     pseudopotential
        C              4.00    12.01100     C ( 1.00)
        Li             3.00     6.94100     Li( 1.00)

     No symmetry found

   Cartesian axes

     site n.     atom                  positions (alat units)
         1           C   tau(   1) = (   0.0000000   0.0000000   0.0000000  )
         2           C   tau(   2) = (   0.0000000   0.1924501   0.0000000  )
         3           C   tau(   3) = (   0.0000000   0.0000000   0.4635214  )
         4           C   tau(   4) = (   0.1666667   0.0962250   0.4635214  )
         5           C   tau(   5) = (  -0.1666667   0.2886751   0.0000000  )
         6           C   tau(   6) = (  -0.1666667   0.4811252   0.0000000  )
         7           C   tau(   7) = (  -0.1666667   0.2886751   0.4635214  )
         8           C   tau(   8) = (   0.0000000   0.3849002   0.4635214  )
         9           C   tau(   9) = (  -0.3333333   0.5773503   0.0000000  )
        10           C   tau(  10) = (  -0.3333333   0.7698004   0.0000000  )
        11           C   tau(  11) = (  -0.3333333   0.5773503   0.4635214  )
        12           C   tau(  12) = (  -0.1666667   0.6735753   0.4635214  )
        13           C   tau(  13) = (   0.3333333   0.0000000   0.0000000  )
        14           C   tau(  14) = (   0.3333333   0.1924501   0.0000000  )
        15           C   tau(  15) = (   0.3333333   0.0000000   0.4635214  )
        16           C   tau(  16) = (   0.5000000   0.0962250   0.4635214  )
        17           C   tau(  17) = (   0.1666667   0.2886751   0.0000000  )
        18           C   tau(  18) = (   0.1666667   0.4811252   0.0000000  )
        19           C   tau(  19) = (   0.1666667   0.2886751   0.4635214  )
        20           C   tau(  20) = (   0.3333333   0.3849002   0.4635214  )
        21           C   tau(  21) = (   0.0000000   0.5773503   0.0000000  )
        22           C   tau(  22) = (   0.0000000   0.7698004   0.0000000  )
        23           C   tau(  23) = (   0.0000000   0.5773503   0.4635214  )
        24           C   tau(  24) = (   0.1666667   0.6735753   0.4635214  )
        25           C   tau(  25) = (   0.6666667   0.0000000   0.0000000  )
        26           C   tau(  26) = (   0.6666667   0.1924501   0.0000000  )
        27           C   tau(  27) = (   0.6666667   0.0000000   0.4635214  )
        28           C   tau(  28) = (   0.8333333   0.0962250   0.4635214  )
        29           C   tau(  29) = (   0.5000000   0.2886751   0.0000000  )
        30           C   tau(  30) = (   0.5000000   0.4811252   0.0000000  )
        31           C   tau(  31) = (   0.5000000   0.2886751   0.4635214  )
        32           C   tau(  32) = (   0.6666667   0.3849002   0.4635214  )
        33           C   tau(  33) = (   0.3333333   0.5773503   0.0000000  )
        34           C   tau(  34) = (   0.3333333   0.7698004   0.0000000  )
        35           C   tau(  35) = (   0.3333333   0.5773503   0.4635214  )
        36           C   tau(  36) = (   0.5000000   0.6735753   0.4635214  )
        37           Li  tau(  37) = (   0.1641870   0.4738072   0.2314957  )

     number of k points=     8  gaussian smearing, width (Ry)=  0.1000
                       cart. coord. in units 2pi/alat
        k(    1) = (   0.0000000   0.0000000   0.0000000), wk =   0.2500000
        k(    2) = (   0.0000000   0.0000000  -0.5393495), wk =   0.2500000
        k(    3) = (   0.0000000  -0.5773503   0.0000000), wk =   0.2500000
        k(    4) = (   0.0000000  -0.5773503  -0.5393495), wk =   0.2500000
        k(    5) = (   0.5000000  -0.2886751   0.0000000), wk =   0.2500000
        k(    6) = (  -0.5000000  -0.2886751   0.0000000), wk =   0.2500000
        k(    7) = (   0.5000000  -0.2886751  -0.5393495), wk =   0.2500000
        k(    8) = (  -0.5000000  -0.2886751  -0.5393495), wk =   0.2500000

     Check: negative core charge=   -0.000003

     Initial potential from superposition of free atoms

     starting charge  146.99370, renormalised to  147.00000

     %%%%%%%%%%%%%%%%%%%%%%%%%%%%%%%%%%%%%%%%%%%%%%%%%%%%%%%%%%%%%%%%%%%%%%%%
     %                                                                      %
     % You are using vdW-DF, which was implemented by the Thonhauser group. %
     % Please cite the following two papers that made this development      %
     % possible and the two reviews that describe the various versions:     %
     %                                                                      %
     %   T. Thonhauser et al., PRL 115, 136402 (2015).                      %
     %   T. Thonhauser et al., PRB 76, 125112 (2007).                       %
     %   K. Berland et al., Rep. Prog. Phys. 78, 066501 (2015).             %
     %   D.C. Langreth et al., J. Phys.: Condens. Matter 21, 084203 (2009). %
     %                                                                      %
     %                                                                      %
     % If you are calculating the stress with vdW-DF, please also cite:     %
     %                                                                      %
     %   R. Sabatini et al., J. Phys.: Condens. Matter 24, 424209 (2012).   %
     %                                                                      %
     %%%%%%%%%%%%%%%%%%%%%%%%%%%%%%%%%%%%%%%%%%%%%%%%%%%%%%%%%%%%%%%%%%%%%%%%

     Starting wfcs are  149 randomized atomic wfcs
     Checking if some PAW data can be deallocated...

     Self-consistent Calculation

     iteration #  1     ecut=    40.00 Ry     beta= 0.40
     Davidson diagonalization with overlap
     ethr =  1.00E-02,  avg # of iterations =  2.5

     total energy              =    -692.73247716 Ry
     Harris-Foulkes estimate   =    -694.34306281 Ry
     estimated scf accuracy    <       3.94710014 Ry

[...]

     End of self-consistent calculation

          k = 0.0000 0.0000 0.0000 (  9489 PWs)   bands (ev):

   -40.5577 -12.7063 -12.4837 -10.2974 -10.1896 -10.1887 -10.1733 -10.0420
   -10.0418 -10.0049  -9.9618  -9.9612  -9.8353  -9.8347  -9.7987  -5.8743
    -5.8706  -5.8075  -5.7888  -5.7859  -5.7257  -5.6962  -5.6928  -3.6237
    -3.5493  -3.5452  -3.5356  -2.8573  -2.8519  -2.8449  -2.8415  -2.8373
    -2.8026  -2.7449  -2.7380  -2.7355  -2.7094  -2.7077  -2.6818  -1.5096
     0.1227   0.9410   0.9427   0.9622   1.0016   1.0032   1.0476   1.0698
     1.0698   1.1058   1.1314   1.1324   1.1464   1.3693   1.3753   1.4102
     1.6541   1.6556   1.6981   2.5799   2.9368   2.9409   3.1355   3.1369
     3.1717   3.7105   3.7107   3.7413   3.7424   6.1463   6.1639   6.6900
     6.7090   6.7244   6.8396   7.3935   7.4023  10.8990  11.1631  11.1752
    11.2297  11.2454  11.2498  11.3916  11.8541  12.0727  12.0734  12.0828
    12.0865

[...]

          k =-0.5000-0.2887 0.0000 (  9510 PWs)   bands (ev):

[...]

     the Fermi energy is     7.1339 ev

!    total energy              =    -692.75419469 Ry
     Harris-Foulkes estimate   =    -692.75419436 Ry
     estimated scf accuracy    <       0.00000016 Ry

     total all-electron energy =     -2772.799197 Ry

     The total energy is the sum of the following terms:

     one-electron contribution =    -111.49808973 Ry
     hartree contribution      =     130.93180590 Ry
     xc contribution           =    -175.94274184 Ry
     ewald contribution        =    -305.23259260 Ry
     one-center paw contrib.   =    -230.83937478 Ry
     smearing contrib. (-TS)   =      -0.17320164 Ry

     convergence has been achieved in   9 iterations

     Forces acting on atoms (cartesian axes, Ry/au):

     atom    1 type  1   force =     0.00118681   -0.00099615    0.00010316
     atom    2 type  1   force =    -0.00527793   -0.00313142   -0.00025642
     atom    3 type  1   force =     0.00166024   -0.00093383    0.00037414
     atom    4 type  1   force =    -0.00003797   -0.00887023   -0.00079222
     atom    5 type  1   force =    -0.00226417   -0.00128600   -0.00069695
     atom    6 type  1   force =    -0.00509767   -0.00263844   -0.00031704
     atom    7 type  1   force =    -0.00780713   -0.00460410   -0.00100283
     atom    8 type  1   force =    -0.00925592   -0.00496522    0.00750463
     atom    9 type  1   force =    -0.00008424    0.00155848    0.00013715
     atom   10 type  1   force =    -0.00000226   -0.00001593   -0.00037673
     atom   11 type  1   force =     0.00001553    0.00195878    0.00038064
     atom   12 type  1   force =    -0.00729051    0.00405207   -0.00091911
     atom   13 type  1   force =    -0.00118476   -0.00089629    0.00007752
     atom   14 type  1   force =     0.00540994   -0.00305845   -0.00020771
     atom   15 type  1   force =    -0.00162255   -0.00092915    0.00037120
     atom   16 type  1   force =     0.00172645    0.00101923    0.00044388
     atom   17 type  1   force =     0.00008707   -0.01366610   -0.00732452
     atom   18 type  1   force =     0.00141092    0.00414738   -0.12553893
     atom   19 type  1   force =     0.00021080   -0.01103923    0.00868151
     atom   20 type  1   force =     0.00877728   -0.00454803    0.00659721
     atom   21 type  1   force =    -0.01084496    0.00646389   -0.00541517
     atom   22 type  1   force =     0.00013201    0.00590523   -0.00015160
     atom   23 type  1   force =    -0.00821936    0.00540960    0.00681105
     atom   24 type  1   force =     0.00012677    0.00881898    0.00513096
     atom   25 type  1   force =    -0.00001901    0.00202551   -0.00060555
     atom   26 type  1   force =    -0.00002118   -0.00003670    0.00047820
     atom   27 type  1   force =    -0.00005141    0.00831017   -0.00117965
     atom   28 type  1   force =    -0.00172139    0.00101865    0.00043732
     atom   29 type  1   force =     0.00208503   -0.00120568   -0.00066437
     atom   30 type  1   force =     0.00494652   -0.00260985   -0.00029315
     atom   31 type  1   force =     0.00757259   -0.00452811   -0.00106916
     atom   32 type  1   force =     0.00000235   -0.00196936    0.00042252
     atom   33 type  1   force =     0.01052576    0.00618429   -0.00467271
     atom   34 type  1   force =    -0.00005250    0.00568313   -0.00017821
     atom   35 type  1   force =     0.00789451    0.00498341    0.00608426
     atom   36 type  1   force =     0.00704594    0.00395479   -0.00097115
     atom   37 type  2   force =     0.00003837    0.00043466    0.10859783

     Total force =     0.172498     Total SCF correction =     0.000634

     BFGS Geometry Optimization

     number of scf cycles    =   1
     number of bfgs steps    =   0

     energy   new            =    -692.7541946879 Ry

     new trust radius        =       0.1256153404 bohr
     new conv_thr            =       0.0000010000 Ry

ATOMIC_POSITIONS (angstrom)
C        0.000628033  -0.000527140   0.000054592
C       -0.002792958   1.427950192  -0.000135692
C        0.000878560  -0.000494159   3.443446695
C        1.238056119   0.710109710   3.442829482
C       -1.239274354   2.143730374  -0.000368811
C       -1.240773778   3.572621961  -0.000167773
C       -1.242207566   2.141974513   3.442718033
C       -0.004898021   2.856587050   3.447219987
C       -2.476196994   4.289646506   0.000072576
C       -2.476153614   5.718420628  -0.000199357
C       -2.476144200   4.289858335   3.443450132
C       -1.241934179   5.005769690   3.442762337
C        2.475525471  -0.000474295   0.000041022
C        2.479015236   1.427988803  -0.000109917
C        2.475293804  -0.000491682   3.443445140
C        3.715142223   0.715342989   3.443483598
C        1.238122286   2.137179109  -0.003875967
C        1.238822836   3.576212860  -0.066432339
C        1.238187760   2.138569187   3.447842767
C        2.480797157   2.856807815   3.446739799
C       -0.005738904   4.292242337  -0.002865583
C        0.000069856   5.721553973  -0.000080221
C       -0.004349498   4.291684433   3.446852960
C        1.238143293   5.008292228   3.445963895
C        4.952294775   0.001071855  -0.000320445
C        4.952293628   1.429587847   0.000253050
C        4.952277632   0.004397553   3.442624461
C        6.189470126   0.715342678   3.443480124
C        3.715331976   2.143772878  -0.000351568
C        3.716846214   3.572637088  -0.000155131
C        3.718235870   2.142014726   3.442682934
C        4.952306082   2.858172387   3.443472292
C        2.481722410   4.292094382  -0.002472693
C        2.476124634   5.721436444  -0.000094305
C        2.480330015   4.291458903   3.446468359
C        3.717957179   5.005718211   3.442734799
Li       1.219676531   3.519886241   1.777123722

     Writing output data file Li_CNT.save/
     NEW-OLD atomic charge density approx. for the potential

[...]

     energy   old            =    -692.7541946879 Ry
     energy   new            =    -692.7739920579 Ry

     CASE: energy  _new < energy  _old

[...]

     number of scf cycles    =  15
     number of bfgs steps    =  14

     energy   old            =    -692.7891996330 Ry
     energy   new            =    -692.7893255137 Ry

     CASE: energy  _new < energy  _old

     new trust radius        =       0.0087563484 bohr
     new conv_thr            =       0.0000000100 Ry

ATOMIC_POSITIONS (angstrom)
C        0.000946928   0.000394318  -0.044404766
C       -0.002118994   1.428255240  -0.063743349
C       -0.000871662  -0.003887415   3.489193322
C        1.236792880   0.705785313   3.495969067
C       -1.239176637   2.144229224  -0.057527627
C       -1.240769222   3.573944612  -0.064296360
C       -1.244067922   2.137988212   3.495748557
C       -0.006719485   2.852436150   3.541005556
C       -2.475854282   4.290292744  -0.044830884
C       -2.475860619   5.719117684  -0.047123184
C       -2.477420296   4.285642104   3.489194022
C       -1.244038679   5.002615231   3.496056897
C        2.475812753   0.000399492  -0.044253280
C        2.478941895   1.428237921  -0.063932170
C        2.474508087  -0.003876233   3.489285784
C        3.713413119   0.711432163   3.488607590
C        1.238337767   2.139793574  -0.109051670
C        1.238411822   3.574908970  -0.178149128
C        1.236830008   2.134391191   3.541571799
C        2.480301201   2.852450296   3.541144236
C       -0.004371081   4.292080156  -0.109906479
C       -0.000359846   5.722391263  -0.064846376
C       -0.006719394   4.288358308   3.542093789
C        1.236802885   5.006189192   3.541571333
C        4.952571155   0.002535841  -0.058682246
C        4.952579258   1.430294836  -0.047967054
C        4.951015559   0.001849619   3.495699923
C        6.188664118   0.711436911   3.488634983
C        3.715938157   2.144184731  -0.057894157
C        3.717551651   3.573962249  -0.064701467
C        3.717673031   2.137970228   3.495708725
C        4.951042479   2.855060100   3.488807077
C        2.481103081   4.292113372  -0.110259282
C        2.477161684   5.722337989  -0.065062871
C        2.480337423   4.288333805   3.542175880
C        3.717665668   5.002639022   3.495966499
Li       1.237031154   3.571858200   1.836330268

     Writing output data file Li_CNT.save/
     NEW-OLD atomic charge density approx. for the potential

     Check: negative core charge=   -0.000003

     Self-consistent Calculation

[...]

     Threshold (ethr) on eigenvalues was too large:
     Diagonalizing with lowered threshold

     Davidson diagonalization with overlap
     ethr =  2.54E-08,  avg # of iterations =  3.0

[...]

     total energy              =    -692.78939039 Ry
     Harris-Foulkes estimate   =    -692.78939038 Ry
     estimated scf accuracy    <       0.00000003 Ry

     iteration #  6     ecut=    40.00 Ry     beta= 0.40
     Davidson diagonalization with overlap
     ethr =  1.83E-11,  avg # of iterations =  2.1

     End of self-consistent calculation

[...]

          k = 0.5000-0.2887-0.5393 (  9508 PWs)   bands (ev):

[...]

          k =-0.5000-0.2887-0.5393 (  9508 PWs)   bands (ev):

   -40.7173 -12.0402 -11.9014 -11.8869 -11.8038 -10.6873 -10.6550 -10.5813
   -10.5621  -8.2680  -8.2345  -8.2191  -8.1894  -8.1551  -8.1329  -8.1251
    -8.0997  -7.4491  -7.3746  -6.2927  -6.2163  -4.5972  -4.5945  -4.5180
    -4.5034  -4.4925  -4.4805  -4.4368  -4.4274  -1.2610  -1.1834  -1.1509
    -1.1281  -1.1166  -1.1050  -1.0618  -1.0573  -0.9647  -0.9381  -0.8872
    -0.8864  -0.3031   0.0141   0.1550   0.2520   0.4081   0.4553   0.4569
     0.4987   0.5194   0.5263   1.3642   1.4122   1.4322   1.5016   1.5147
     1.5660   1.6478   1.7076   2.6026   2.6559   2.6768   2.7202   3.9090
     3.9969   4.0220   4.1208   4.2047   4.2549   4.3284   4.3479   4.4618
     4.5731   8.3834   8.4916   9.1215   9.1976   9.2151   9.2325   9.2471
     9.3697   9.4010   9.4323  13.0053  13.0421  13.0445  13.1252  13.3279
    13.4587

     the Fermi energy is     7.1672 ev

!    total energy              =    -692.78939040 Ry
     Harris-Foulkes estimate   =    -692.78939039 Ry
     estimated scf accuracy    <          3.1E-09 Ry

     total all-electron energy =     -2772.834393 Ry

     The total energy is the sum of the following terms:

     one-electron contribution =    -110.29354741 Ry
     hartree contribution      =     130.46583127 Ry
     xc contribution           =    -175.88668456 Ry
     ewald contribution        =    -306.06420591 Ry
     one-center paw contrib.   =    -230.83802874 Ry
     smearing contrib. (-TS)   =      -0.17275503 Ry

     convergence has been achieved in   6 iterations

     Forces acting on atoms (cartesian axes, Ry/au):

     atom    1 type  1   force =    -0.00029732    0.00004814   -0.00078124
     atom    2 type  1   force =     0.00036241   -0.00023690   -0.00079227
     atom    3 type  1   force =     0.00044603   -0.00027868    0.00027059
     atom    4 type  1   force =     0.00007820   -0.00004380    0.00000540
     atom    5 type  1   force =    -0.00051950    0.00017817   -0.00049104
     atom    6 type  1   force =    -0.00012826   -0.00032292   -0.00074251
     atom    7 type  1   force =    -0.00015066    0.00008012   -0.00003586
     atom    8 type  1   force =     0.00012684   -0.00001599   -0.00031486
     atom    9 type  1   force =     0.00000478   -0.00014935   -0.00066223
     atom   10 type  1   force =     0.00003176    0.00016920    0.00229933
     atom   11 type  1   force =     0.00000314    0.00040701    0.00029491
     atom   12 type  1   force =     0.00014610    0.00016585    0.00006953
     atom   13 type  1   force =     0.00032335    0.00006119   -0.00082651
     atom   14 type  1   force =    -0.00057977   -0.00022066   -0.00076988
     atom   15 type  1   force =    -0.00052381   -0.00032664    0.00024684
     atom   16 type  1   force =     0.00042283    0.00018414    0.00030691
     atom   17 type  1   force =     0.00017232    0.00031885    0.00105524
     atom   18 type  1   force =    -0.00009897   -0.00050926   -0.00192125
     atom   19 type  1   force =    -0.00008535   -0.00000434   -0.00022960
     atom   20 type  1   force =     0.00000147   -0.00008130   -0.00037281
     atom   21 type  1   force =     0.00026287    0.00058779    0.00122164
     atom   22 type  1   force =    -0.00030451   -0.00038484   -0.00067869
     atom   23 type  1   force =    -0.00025938   -0.00004469   -0.00036074
     atom   24 type  1   force =     0.00000837    0.00022823   -0.00045860
     atom   25 type  1   force =     0.00011315    0.00004772   -0.00026064
     atom   26 type  1   force =     0.00006499    0.00018266    0.00232639
     atom   27 type  1   force =     0.00005410    0.00001033    0.00005633
     atom   28 type  1   force =    -0.00046214    0.00016374    0.00028788
     atom   29 type  1   force =     0.00050139    0.00032087   -0.00041987
     atom   30 type  1   force =     0.00005490   -0.00037256   -0.00069975
     atom   31 type  1   force =     0.00015500    0.00013964   -0.00000020
     atom   32 type  1   force =    -0.00003679   -0.00060442    0.00023631
     atom   33 type  1   force =    -0.00010492    0.00047829    0.00128977
     atom   34 type  1   force =     0.00013388   -0.00022417   -0.00065820
     atom   35 type  1   force =     0.00024999    0.00004943   -0.00039640
     atom   36 type  1   force =    -0.00014803    0.00007479    0.00010602
     atom   37 type  2   force =    -0.00001844   -0.00007563    0.00180007

     Total force =     0.005807     Total SCF correction =     0.000074

     bfgs converged in  16 scf cycles and  15 bfgs steps
     (criteria: energy <  1.0E-04 Ry, force <  1.0E-02 Ry/Bohr)

     End of BFGS Geometry Optimization

     Final energy   =    -692.7893903959 Ry
Begin final coordinates

ATOMIC_POSITIONS (angstrom)
C        0.000946928   0.000394318  -0.044404766
C       -0.002118994   1.428255240  -0.063743349
C       -0.000871662  -0.003887415   3.489193322
C        1.236792880   0.705785313   3.495969067
C       -1.239176637   2.144229224  -0.057527627
C       -1.240769222   3.573944612  -0.064296360
C       -1.244067922   2.137988212   3.495748557
C       -0.006719485   2.852436150   3.541005556
C       -2.475854282   4.290292744  -0.044830884
C       -2.475860619   5.719117684  -0.047123184
C       -2.477420296   4.285642104   3.489194022
C       -1.244038679   5.002615231   3.496056897
C        2.475812753   0.000399492  -0.044253280
C        2.478941895   1.428237921  -0.063932170
C        2.474508087  -0.003876233   3.489285784
C        3.713413119   0.711432163   3.488607590
C        1.238337767   2.139793574  -0.109051670
C        1.238411822   3.574908970  -0.178149128
C        1.236830008   2.134391191   3.541571799
C        2.480301201   2.852450296   3.541144236
C       -0.004371081   4.292080156  -0.109906479
C       -0.000359846   5.722391263  -0.064846376
C       -0.006719394   4.288358308   3.542093789
C        1.236802885   5.006189192   3.541571333
C        4.952571155   0.002535841  -0.058682246
C        4.952579258   1.430294836  -0.047967054
C        4.951015559   0.001849619   3.495699923
C        6.188664118   0.711436911   3.488634983
C        3.715938157   2.144184731  -0.057894157
C        3.717551651   3.573962249  -0.064701467
C        3.717673031   2.137970228   3.495708725
C        4.951042479   2.855060100   3.488807077
C        2.481103081   4.292113372  -0.110259282
C        2.477161684   5.722337989  -0.065062871
C        2.480337423   4.288333805   3.542175880
C        3.717665668   5.002639022   3.495966499
Li       1.237031154   3.571858200   1.836330268
End final coordinates

     Writing output data file Li_CNT.save/

     General routines

     Parallel routines

   This run was terminated on:  23:46: 1  10Mar2024

   JOB DONE.