     Program PWSCF v.6.4.1 starts on 30May2024 at 22:46:26

     R & G space division:  proc/nbgrp/npool/nimage =      32
     Reading input from v16o40.rlx.in

     Current dimensions of program PWSCF are:
     Max number of different atomic species (ntypx) = 10
     Max number of k-points (npk) =  40000
     Max angular momentum in pseudopotentials (lmaxx) =  3
               file V.pbe-spnl-kjpaw_psl.1.0.0.UPF: wavefunction(s)  3P 3D renormalized
               file O.pbe-n-kjpaw_psl.1.0.0.UPF: wavefunction(s)  2S 2P renormalized

     Parameters for Dispersion (Grimme-D2) Correction:
       atom      VdW radius       C_6

        V          2.952        374.666
        O          2.536         24.284

     Subspace diagonalization in iterative solution of the eigenvalue problem:
     one sub-group per band group will be used

     Found symmetry operation: I + (  0.5000  0.0000  0.0000)
     This is a supercell, fractional translations are disabled

     bravais-lattice index     =            8
     lattice parameter (alat)  =      13.5232  a.u.
     unit-cell volume          =    4911.3436 (a.u.)^3
     number of atoms/cell      =           56
     number of atomic types    =            2
     number of electrons       =       448.00
     number of Kohn-Sham states=          269
     kinetic-energy cutoff     =      65.0000  Ry
     charge density cutoff     =     650.0000  Ry
     convergence threshold     =      1.0E-10
     mixing beta               =       0.7000
     number of iterations used =            8  plain     mixing
     Exchange-correlation      = SLA PW PBX PBC ( 1  4  3  4 0 0)
     nstep                     =          500

     celldm(1)=  13.523246  celldm(2)=   1.231081  celldm(3)=   1.613135
     celldm(4)=   0.000000  celldm(5)=   0.000000  celldm(6)=   0.000000

     crystal axes: (cart. coord. in units of alat)
               a(1) = (   1.000000   0.000000   0.000000 )
               a(2) = (   0.000000   1.231081   0.000000 )
               a(3) = (   0.000000   0.000000   1.613135 )

     reciprocal axes: (cart. coord. in units 2 pi/alat)
               b(1) = (  1.000000  0.000000  0.000000 )
               b(2) = (  0.000000  0.812294  0.000000 )
               b(3) = (  0.000000  0.000000  0.619911 )

     PseudoPot. # 1 for V  read from file:
     /home/mpicuntureo/pseudos/V.pbe-spnl-kjpaw_psl.1.0.0.UPF
     MD5 check sum: 069c5df6a0a9f40a694a86a6cab52b89
     Pseudo is Projector augmented-wave + core cor, Zval = 13.0
     Generated using "atomic" code by A. Dal Corso v.6.3
     Shape of augmentation charge: PSQ
     Using radial grid of 1181 points,  6 beta functions with:
                l(1) =   0
                l(2) =   0
                l(3) =   1
                l(4) =   1
                l(5) =   2
                l(6) =   2
     Q(r) pseudized with 0 coefficients

     PseudoPot. # 2 for O  read from file:
     /home/mpicuntureo/pseudos/O.pbe-n-kjpaw_psl.1.0.0.UPF
     MD5 check sum: e99d9cef9b487d1ca56f5b95ecd0fd7a
     Pseudo is Projector augmented-wave + core cor, Zval =  6.0
     Generated using "atomic" code by A. Dal Corso v.6.3
     Shape of augmentation charge: PSQ
     Using radial grid of 1095 points,  4 beta functions with:
                l(1) =   0
                l(2) =   0
                l(3) =   1
                l(4) =   1
     Q(r) pseudized with 0 coefficients

     atomic species   valence    mass     pseudopotential
        V             13.00    50.94150     V ( 1.00)
        O              6.00    15.99940     O ( 1.00)

     Simplified LDA+U calculation (l_max = 2) with parameters (eV):
     atomic species    L          U    alpha       J0     beta
        V              2     4.0000   0.0000   0.0000   0.0000

      4 Sym. Ops. (no inversion) found

   Cartesian axes

     site n.     atom                  positions (alat units)
         1           V   tau(   1) = (   0.0000000   0.2347607   1.0468618  )
         2           V   tau(   2) = (   0.2500000   0.3806958   1.3728350  )
         3           V   tau(   3) = (   0.2500000   0.3806958   0.2403003  )
         4           V   tau(   4) = (   0.0000000   0.2347607   0.5662735  )
         5           O   tau(   5) = (   0.2500000   0.3032478   1.0991655  )
         6           O   tau(   6) = (   0.0000000   0.3122310   1.3205111  )
         7           O   tau(   7) = (   0.0000000   0.3122310   0.2926242  )
         8           O   tau(   8) = (   0.2500000   0.3032478   0.5139698  )
         9           O   tau(   9) = (   0.0000000   0.0120329   0.5693047  )
        10           O   tau(  10) = (   0.2500000   0.6034230   0.2372678  )
        11           O   tau(  11) = (   0.2500000   0.6034230   1.3758675  )
        12           O   tau(  12) = (   0.2500000   0.3125313   0.0000000  )
        13           O   tau(  13) = (   0.0000000   0.3029536   0.8065677  )
        14           O   tau(  14) = (   0.0000000   0.0120329   1.0438306  )
        15           V   tau(  15) = (   0.0000000   0.8503855   1.0468680  )
        16           V   tau(  16) = (   0.2500000   0.9963204   1.3728412  )
        17           V   tau(  17) = (   0.2500000   0.9963204   0.2402942  )
        18           V   tau(  18) = (   0.0000000   0.8503855   0.5662673  )
        19           O   tau(  19) = (   0.2500000   0.9188502   1.0991919  )
        20           O   tau(  20) = (   0.0000000   0.9278335   1.3205374  )
        21           O   tau(  21) = (   0.0000000   0.9278335   0.2925979  )
        22           O   tau(  22) = (   0.2500000   0.9188502   0.5139434  )
        23           O   tau(  23) = (   0.0000000   0.6276582   0.5692999  )
        24           O   tau(  24) = (   0.2500000   1.2190483   0.2372630  )
        25           O   tau(  25) = (   0.2500000   1.2190483   1.3758723  )
        26           O   tau(  26) = (   0.2500000   0.9281275   0.0000000  )
        27           O   tau(  27) = (   0.0000000   0.9185499   0.8065677  )
        28           O   tau(  28) = (   0.0000000   0.6276582   1.0438354  )
        29           V   tau(  29) = (   0.5000000   0.2347608   1.0468618  )
        30           V   tau(  30) = (   0.7500000   0.3806958   1.3728350  )
        31           V   tau(  31) = (   0.7500000   0.3806958   0.2403003  )
        32           V   tau(  32) = (   0.5000000   0.2347608   0.5662735  )
        33           O   tau(  33) = (   0.7500000   0.3032478   1.0991655  )
        34           O   tau(  34) = (   0.5000000   0.3122310   1.3205111  )
        35           O   tau(  35) = (   0.5000000   0.3122310   0.2926242  )
        36           O   tau(  36) = (   0.7500000   0.3032478   0.5139698  )
        37           O   tau(  37) = (   0.5000000   0.0120330   0.5693047  )
        38           O   tau(  38) = (   0.7500000   0.6034230   0.2372678  )
        39           O   tau(  39) = (   0.7500000   0.6034230   1.3758675  )
        40           O   tau(  40) = (   0.7500000   0.3125313   0.0000000  )
        41           O   tau(  41) = (   0.5000000   0.3029537   0.8065677  )
        42           O   tau(  42) = (   0.5000000   0.0120330   1.0438306  )
        43           V   tau(  43) = (   0.5000000   0.8503855   1.0468680  )
        44           V   tau(  44) = (   0.7500000   0.9963204   1.3728412  )
        45           V   tau(  45) = (   0.7500000   0.9963204   0.2402942  )
        46           V   tau(  46) = (   0.5000000   0.8503855   0.5662673  )
        47           O   tau(  47) = (   0.7500000   0.9188502   1.0991919  )
        48           O   tau(  48) = (   0.5000000   0.9278335   1.3205374  )
        49           O   tau(  49) = (   0.5000000   0.9278335   0.2925979  )
        50           O   tau(  50) = (   0.7500000   0.9188502   0.5139434  )
        51           O   tau(  51) = (   0.5000000   0.6276582   0.5692999  )
        52           O   tau(  52) = (   0.7500000   1.2190483   0.2372630  )
        53           O   tau(  53) = (   0.7500000   1.2190483   1.3758723  )
        54           O   tau(  54) = (   0.7500000   0.9281275   0.0000000  )
        55           O   tau(  55) = (   0.5000000   0.9185500   0.8065677  )
        56           O   tau(  56) = (   0.5000000   0.6276582   1.0438354  )

     number of k points=     8  gaussian smearing, width (Ry)=  0.0500
                       cart. coord. in units 2pi/alat
        k(    1) = (   0.0000000   0.0000000   0.0000000), wk =   0.2500000
        k(    2) = (   0.0000000   0.0000000  -0.3099554), wk =   0.2500000
        k(    3) = (   0.0000000  -0.4061470   0.0000000), wk =   0.2500000
        k(    4) = (   0.0000000  -0.4061470  -0.3099554), wk =   0.2500000
        k(    5) = (  -0.5000000   0.0000000   0.0000000), wk =   0.2500000
        k(    6) = (  -0.5000000   0.0000000  -0.3099554), wk =   0.2500000
        k(    7) = (  -0.5000000  -0.4061470   0.0000000), wk =   0.2500000
        k(    8) = (  -0.5000000  -0.4061470  -0.3099554), wk =   0.2500000

     Check: negative core charge=   -0.000001

     Initial potential from superposition of free atoms

     starting charge  447.98541, renormalised to  448.00000
     Number of +U iterations with fixed ns =  0
     Starting occupations:
 --- enter write_ns ---
 LDA+U parameters:
U( 1)     =  4.00000000
alpha( 1) =  0.00000000
atom    1   Tr[ns(na)] =   3.00000
    eigenvalues:
  0.300  0.300  0.300  0.300  0.300
    eigenvectors:
  1.000  0.000  0.000  0.000  0.000
  0.000  1.000  0.000  0.000  0.000
  0.000  0.000  1.000  0.000  0.000
  0.000  0.000  0.000  1.000  0.000
  0.000  0.000  0.000  0.000  1.000
    occupations:
  0.300  0.000  0.000  0.000  0.000
  0.000  0.300  0.000  0.000  0.000
  0.000  0.000  0.300  0.000  0.000
  0.000  0.000  0.000  0.300  0.000
  0.000  0.000  0.000  0.000  0.300
atom    2   Tr[ns(na)] =   3.00000
    eigenvalues:
  0.300  0.300  0.300  0.300  0.300
    eigenvectors:
  1.000  0.000  0.000  0.000  0.000
  0.000  1.000  0.000  0.000  0.000
  0.000  0.000  1.000  0.000  0.000
  0.000  0.000  0.000  1.000  0.000
  0.000  0.000  0.000  0.000  1.000
    occupations:
  0.300  0.000  0.000  0.000  0.000
  0.000  0.300  0.000  0.000  0.000
  0.000  0.000  0.300  0.000  0.000
  0.000  0.000  0.000  0.300  0.000
  0.000  0.000  0.000  0.000  0.300
atom    3   Tr[ns(na)] =   3.00000
    eigenvalues:
  0.300  0.300  0.300  0.300  0.300
    eigenvectors:
  1.000  0.000  0.000  0.000  0.000
  0.000  1.000  0.000  0.000  0.000
  0.000  0.000  1.000  0.000  0.000
  0.000  0.000  0.000  1.000  0.000
  0.000  0.000  0.000  0.000  1.000
    occupations:
  0.300  0.000  0.000  0.000  0.000
  0.000  0.300  0.000  0.000  0.000
  0.000  0.000  0.300  0.000  0.000
  0.000  0.000  0.000  0.300  0.000
  0.000  0.000  0.000  0.000  0.300
atom    4   Tr[ns(na)] =   3.00000
    eigenvalues:
  0.300  0.300  0.300  0.300  0.300
    eigenvectors:
  1.000  0.000  0.000  0.000  0.000
  0.000  1.000  0.000  0.000  0.000
  0.000  0.000  1.000  0.000  0.000
  0.000  0.000  0.000  1.000  0.000
  0.000  0.000  0.000  0.000  1.000
    occupations:
  0.300  0.000  0.000  0.000  0.000
  0.000  0.300  0.000  0.000  0.000
  0.000  0.000  0.300  0.000  0.000
  0.000  0.000  0.000  0.300  0.000
[...]
  0.000  1.000  0.000  0.000  0.000
    occupations:
  0.508 -0.000  0.006  0.027  0.000
 -0.000  0.300 -0.000  0.000 -0.001
  0.006 -0.000  0.479 -0.007  0.000
  0.027  0.000 -0.007  0.529 -0.000
  0.000 -0.001  0.000 -0.000  0.472
atom   16   Tr[ns(na)] =   4.57672
    eigenvalues:
  0.300  0.472  0.475  0.494  0.547
    eigenvectors:
  0.000  0.000  0.152  0.531  0.317
  1.000  0.000  0.000  0.000  0.000
  0.000  0.000  0.757  0.242  0.001
  0.000  0.000  0.091  0.227  0.682
  0.000  1.000  0.000  0.000  0.000
    occupations:
  0.508  0.000  0.006  0.027 -0.000
  0.000  0.300  0.000 -0.000 -0.001
  0.006  0.000  0.479 -0.007 -0.000
  0.027 -0.000 -0.007  0.529  0.000
 -0.000 -0.001 -0.000  0.000  0.472
atom   17   Tr[ns(na)] =   4.57672
    eigenvalues:
  0.300  0.472  0.475  0.494  0.547
    eigenvectors:
  0.000  0.000  0.152  0.531  0.317
  1.000  0.000  0.000  0.000  0.000
  0.000  0.000  0.757  0.242  0.001
  0.000  0.000  0.091  0.227  0.682
  0.000  1.000  0.000  0.000  0.000
    occupations:
  0.508 -0.000 -0.006  0.027 -0.000
 -0.000  0.300  0.000  0.000  0.001
 -0.006  0.000  0.479  0.007  0.000
  0.027  0.000  0.007  0.529  0.000
 -0.000  0.001  0.000  0.000  0.472
atom   18   Tr[ns(na)] =   4.57677
    eigenvalues:
  0.300  0.472  0.475  0.494  0.547
    eigenvectors:
  0.000  0.000  0.153  0.530  0.317
  1.000  0.000  0.000  0.000  0.000
  0.000  0.000  0.756  0.243  0.001
  0.000  0.000  0.091  0.227  0.682
  0.000  1.000  0.000  0.000  0.000
    occupations:
  0.508 -0.000 -0.006  0.027  0.000
 -0.000  0.300 -0.000  0.000  0.001
 -0.006 -0.000  0.479  0.007  0.000
  0.027  0.000  0.007  0.529 -0.000
  0.000  0.001  0.000 -0.000  0.472
atom   29   Tr[ns(na)] =   4.57672
    eigenvalues:
  0.300  0.472  0.475  0.494  0.547
    eigenvectors:
  0.000  0.000  0.152  0.531  0.317
  1.000  0.000  0.000  0.000  0.000
  0.000  0.000  0.757  0.242  0.001
  0.000  0.000  0.091  0.227  0.682
  0.000  1.000  0.000  0.000  0.000
    occupations:
  0.508 -0.000  0.006  0.027  0.000
 -0.000  0.300 -0.000  0.000 -0.001
  0.006 -0.000  0.479 -0.007  0.000
  0.027  0.000 -0.007  0.529 -0.000
  0.000 -0.001  0.000 -0.000  0.472
atom   30   Tr[ns(na)] =   4.57678
    eigenvalues:
  0.300  0.472  0.475  0.494  0.547
    eigenvectors:
  0.000  0.000  0.153  0.530  0.317
  1.000  0.000  0.000  0.000  0.000
  0.000  0.000  0.756  0.243  0.001
  0.000  0.000  0.091  0.227  0.682
  0.000  1.000  0.000  0.000  0.000
    occupations:
  0.508  0.000  0.006  0.027 -0.000
  0.000  0.300  0.000 -0.000 -0.001
  0.006  0.000  0.479 -0.007 -0.000
  0.027 -0.000 -0.007  0.529  0.000
 -0.000 -0.001 -0.000  0.000  0.472
atom   31   Tr[ns(na)] =   4.57678
    eigenvalues:
  0.300  0.472  0.475  0.494  0.547
    eigenvectors:
  0.000  0.000  0.153  0.530  0.317
  1.000  0.000  0.000  0.000  0.000
  0.000  0.000  0.756  0.243  0.001
  0.000  0.000  0.091  0.227  0.682
  0.000  1.000  0.000  0.000  0.000
    occupations:
  0.508 -0.000 -0.006  0.027 -0.000
 -0.000  0.300  0.000  0.000  0.001
 -0.006  0.000  0.479  0.007  0.000
  0.027  0.000  0.007  0.529  0.000
 -0.000  0.001  0.000  0.000  0.472
atom   32   Tr[ns(na)] =   4.57672
    eigenvalues:
  0.300  0.472  0.475  0.494  0.547
    eigenvectors:
  0.000  0.000  0.152  0.531  0.317
  1.000  0.000  0.000  0.000  0.000
  0.000  0.000  0.757  0.242  0.001
  0.000  0.000  0.091  0.227  0.682
  0.000  1.000  0.000  0.000  0.000
    occupations:
  0.508 -0.000 -0.006  0.027  0.000
 -0.000  0.300 -0.000  0.000  0.001
 -0.006 -0.000  0.479  0.007  0.000
  0.027  0.000  0.007  0.529 -0.000
  0.000  0.001  0.000 -0.000  0.472
atom   43   Tr[ns(na)] =   4.57677
    eigenvalues:
  0.300  0.472  0.475  0.494  0.547
    eigenvectors:
  0.000  0.000  0.153  0.530  0.317
  1.000  0.000  0.000  0.000  0.000
  0.000  0.000  0.756  0.243  0.001
  0.000  0.000  0.091  0.227  0.682
  0.000  1.000  0.000  0.000  0.000
    occupations:
  0.508 -0.000  0.006  0.027  0.000
 -0.000  0.300 -0.000  0.000 -0.001
  0.006 -0.000  0.479 -0.007  0.000
  0.027  0.000 -0.007  0.529 -0.000
  0.000 -0.001  0.000 -0.000  0.472
atom   44   Tr[ns(na)] =   4.57672
    eigenvalues:
  0.300  0.472  0.475  0.494  0.547
    eigenvectors:
  0.000  0.000  0.152  0.531  0.317
  1.000  0.000  0.000  0.000  0.000
  0.000  0.000  0.757  0.242  0.001
  0.000  0.000  0.091  0.227  0.682
  0.000  1.000  0.000  0.000  0.000
    occupations:
  0.508 -0.000  0.006  0.027  0.000
 -0.000  0.300 -0.000  0.000 -0.001
  0.006 -0.000  0.479 -0.007  0.000
  0.027  0.000 -0.007  0.529 -0.000
  0.000 -0.001  0.000 -0.000  0.472
atom   45   Tr[ns(na)] =   4.57672
    eigenvalues:
  0.300  0.472  0.475  0.494  0.547
    eigenvectors:
  0.000  0.000  0.152  0.531  0.317
  1.000  0.000  0.000  0.000  0.000
  0.000  0.000  0.757  0.242  0.001
  0.000  0.000  0.091  0.227  0.682
  0.000  1.000  0.000  0.000  0.000
    occupations:
  0.508  0.000 -0.006  0.027  0.000
  0.000  0.300 -0.000 -0.000  0.001
 -0.006 -0.000  0.479  0.007 -0.000
  0.027 -0.000  0.007  0.529 -0.000
  0.000  0.001 -0.000 -0.000  0.472
atom   46   Tr[ns(na)] =   4.57677
    eigenvalues:
  0.300  0.472  0.475  0.494  0.547
    eigenvectors:
  0.000  0.000  0.153  0.530  0.317
  1.000  0.000  0.000  0.000  0.000
  0.000  0.000  0.756  0.243  0.001
  0.000  0.000  0.091  0.227  0.682
  0.000  1.000  0.000  0.000  0.000
    occupations:
  0.508 -0.000 -0.006  0.027  0.000
 -0.000  0.300 -0.000  0.000  0.001
 -0.006 -0.000  0.479  0.007  0.000
  0.027  0.000  0.007  0.529 -0.000
  0.000  0.001  0.000 -0.000  0.472
N of occupied +U levels =   73.227949
 --- exit write_ns ---

[...]

          k = 0.0000-0.4061-0.3100 ( 43472 PWs)   bands (ev):

[...]

          k =-0.5000-0.4061-0.3100 ( 43472 PWs)   bands (ev):

   -60.0941 -60.0941 -60.0941 -60.0941 -60.0940 -60.0940 -60.0940 -60.0940
   -60.0861 -60.0861 -60.0861 -60.0861 -60.0860 -60.0860 -60.0860 -60.0860
   -34.0505 -34.0505 -34.0505 -34.0505 -34.0505 -34.0505 -34.0505 -34.0505
   -34.0396 -34.0396 -34.0396 -34.0396 -34.0395 -34.0395 -34.0395 -34.0395
   -34.0036 -34.0036 -34.0036 -34.0036 -34.0035 -34.0035 -34.0035 -34.0035
   -33.9671 -33.9671 -33.9671 -33.9671 -33.9670 -33.9670 -33.9670 -33.9670
   -33.9171 -33.9171 -33.9171 -33.9171 -33.9169 -33.9169 -33.9169 -33.9169
   -33.9036 -33.9036 -33.9036 -33.9036 -33.9036 -33.9036 -33.9036 -33.9036
   -12.9903 -12.9903 -12.9903 -12.9903 -12.9900 -12.9900 -12.9900 -12.9900
   -12.1121 -12.1121 -12.1121 -12.1121 -12.1118 -12.1118 -12.1118 -12.1118
   -12.0974 -12.0974 -12.0974 -12.0974 -12.0973 -12.0973 -12.0973 -12.0973
   -11.8496 -11.8496 -11.8496 -11.8496 -11.8486 -11.8486 -11.8486 -11.8486
   -11.7117 -11.7117 -11.7117 -11.7117 -11.7107 -11.7107 -11.7107 -11.7107
    -0.6046  -0.6046  -0.6046  -0.6046  -0.6046  -0.6046  -0.6046  -0.6046
    -0.0289  -0.0289  -0.0289  -0.0289  -0.0287  -0.0287  -0.0287  -0.0287
     0.3256   0.3256   0.3256   0.3256   0.3264   0.3264   0.3264   0.3264
     0.5627   0.5627   0.5627   0.5627   0.5636   0.5636   0.5636   0.5636
     0.8708   0.8708   0.8708   0.8708   0.8714   0.8714   0.8714   0.8714
     0.9745   0.9745   0.9745   0.9745   0.9756   0.9756   0.9756   0.9756
     1.4968   1.4968   1.4968   1.4968   1.4986   1.4986   1.4986   1.4986
     2.0003   2.0003   2.0003   2.0003   2.0006   2.0006   2.0006   2.0006
     2.1359   2.1359   2.1359   2.1359   2.1362   2.1362   2.1362   2.1363
     2.2890   2.2890   2.2890   2.2890   2.2891   2.2891   2.2891   2.2891
     2.5998   2.5998   2.5998   2.5998   2.6001   2.6001   2.6001   2.6001
     2.9986   2.9986   2.9986   2.9986   2.9992   2.9992   2.9992   2.9992
     3.4981   3.4981   3.4981   3.4981   3.4984   3.4984   3.4984   3.4984
     3.6413   3.6413   3.6413   3.6414   3.6423   3.6423   3.6423   3.6423
     3.8347   3.8347   3.8347   3.8347   3.8352   3.8352   3.8352   3.8352
     6.7129   6.7129   6.7129   6.7129   6.7132   6.7132   6.7132   6.7132
     7.3887   7.3887   7.3887   7.3887   7.3892   7.3892   7.3892   7.3892
     7.5195   7.5195   7.5195   7.5195   7.5201   7.5201   7.5201   7.5201
     7.7627   7.7627   7.7628   7.7628   7.7634   7.7634   7.7634   7.7634
     7.9099   7.9099   7.9099   7.9099   7.9106   7.9106   7.9107   7.9107
     8.0690   8.0690   8.0692   8.0694   8.0694

     the Fermi energy is     5.2639 ev

!    total energy              =   -5089.47860327 Ry
     Harris-Foulkes estimate   =   -5089.47860327 Ry
     estimated scf accuracy    <          8.8E-13 Ry

     total all-electron energy =    -36396.894272 Ry

     The total energy is the sum of the following terms:

     one-electron contribution =   -2320.09595175 Ry
     hartree contribution      =    1332.90916001 Ry
     xc contribution           =    -619.35937635 Ry
     ewald contribution        =   -1986.50743488 Ry
     Dispersion Correction     =      -0.52245583 Ry
     Hubbard energy            =       5.67501219 Ry
     one-center paw contrib.   =   -1501.56794075 Ry
     smearing contrib. (-TS)   =      -0.00961590 Ry

     convergence has been achieved in  10 iterations

     negative rho (up, down):  1.027E-03 0.000E+00

     Forces acting on atoms (cartesian axes, Ry/au):

     atom    1 type  1   force =     0.00000000   -0.00000746    0.00000007
     atom    2 type  1   force =     0.00000021   -0.00000651   -0.00000012
     atom    3 type  1   force =     0.00000021   -0.00000651    0.00000012
     atom    4 type  1   force =     0.00000000   -0.00000746   -0.00000007
     atom    5 type  2   force =    -0.00000007   -0.00000073    0.00000043
     atom    6 type  2   force =     0.00000000    0.00000107   -0.00000022
     atom    7 type  2   force =     0.00000000    0.00000107    0.00000022
     atom    8 type  2   force =    -0.00000007   -0.00000073   -0.00000043
     atom    9 type  2   force =     0.00000000    0.00000739   -0.00000087
     atom   10 type  2   force =    -0.00000002    0.00000571    0.00000081
     atom   11 type  2   force =    -0.00000002    0.00000571   -0.00000081
     atom   12 type  2   force =    -0.00000003   -0.00000087    0.00000000
     atom   13 type  2   force =     0.00000000    0.00000159    0.00000000
     atom   14 type  2   force =     0.00000000    0.00000739    0.00000087
     atom   15 type  1   force =     0.00000000   -0.00000530   -0.00000027
     atom   16 type  1   force =    -0.00000015   -0.00000442    0.00000026
     atom   17 type  1   force =    -0.00000015   -0.00000442   -0.00000026
     atom   18 type  1   force =     0.00000000   -0.00000530    0.00000027
     atom   19 type  2   force =     0.00000010   -0.00000028    0.00000045
     atom   20 type  2   force =     0.00000000    0.00000091   -0.00000024
     atom   21 type  2   force =     0.00000000    0.00000091    0.00000024
     atom   22 type  2   force =     0.00000010   -0.00000028   -0.00000045
     atom   23 type  2   force =     0.00000000    0.00000534   -0.00000110
     atom   24 type  2   force =     0.00000003    0.00000374    0.00000072
     atom   25 type  2   force =     0.00000003    0.00000374   -0.00000072
     atom   26 type  2   force =    -0.00000000   -0.00000114    0.00000000
     atom   27 type  2   force =     0.00000000    0.00000119    0.00000000
     atom   28 type  2   force =     0.00000000    0.00000534    0.00000110
     atom   29 type  1   force =     0.00000000    0.00000361   -0.00000006
     atom   30 type  1   force =    -0.00000021   -0.00000651   -0.00000012
     atom   31 type  1   force =    -0.00000021   -0.00000651    0.00000012
     atom   32 type  1   force =     0.00000000    0.00000361    0.00000006
     atom   33 type  2   force =     0.00000007   -0.00000073    0.00000043
     atom   34 type  2   force =     0.00000000    0.00000077   -0.00000030
     atom   35 type  2   force =     0.00000000    0.00000077    0.00000030
     atom   36 type  2   force =     0.00000007   -0.00000073   -0.00000043
     atom   37 type  2   force =     0.00000000   -0.00000254   -0.00000075
     atom   38 type  2   force =     0.00000002    0.00000571    0.00000081
     atom   39 type  2   force =     0.00000002    0.00000571   -0.00000081
     atom   40 type  2   force =     0.00000003   -0.00000087    0.00000000
     atom   41 type  2   force =     0.00000000    0.00000075    0.00000000
     atom   42 type  2   force =     0.00000000   -0.00000254    0.00000075
     atom   43 type  1   force =     0.00000000   -0.00001122   -0.00000006
     atom   44 type  1   force =     0.00000015   -0.00000442    0.00000026
     atom   45 type  1   force =     0.00000015   -0.00000442   -0.00000026
     atom   46 type  1   force =     0.00000000   -0.00001122    0.00000006
     atom   47 type  2   force =    -0.00000010   -0.00000028    0.00000045
     atom   48 type  2   force =     0.00000000    0.00000108   -0.00000030
     atom   49 type  2   force =     0.00000000    0.00000108    0.00000030
     atom   50 type  2   force =    -0.00000010   -0.00000028   -0.00000045
     atom   51 type  2   force =     0.00000000    0.00001062   -0.00000123
     atom   52 type  2   force =    -0.00000003    0.00000374    0.00000072
     atom   53 type  2   force =    -0.00000003    0.00000374   -0.00000072
     atom   54 type  2   force =     0.00000000   -0.00000114    0.00000000
     atom   55 type  2   force =     0.00000000    0.00000190    0.00000000
     atom   56 type  2   force =     0.00000000    0.00001062    0.00000123

     Total force =     0.000036     Total SCF correction =     0.000003
     Message from routine bfgs:
     history already reset at previous step: stopping

     bfgs converged in  26 scf cycles and  25 bfgs steps
     (criteria: energy <  1.0E-04 Ry, force <  1.0E-05 Ry/Bohr)

     End of BFGS Geometry Optimization

     Final energy   =   -5089.4786032672 Ry
Begin final coordinates

ATOMIC_POSITIONS (angstrom)
V        0.000000000   1.684297290   7.491569715
V        1.789048329   2.719586117   9.824208117
V        1.789048329   2.719586117   1.719700137
V        0.000000000   1.684297290   4.052338526
O        1.789048382   2.181611337   7.862910598
O        0.000000000   2.222475603   9.452630386
O        0.000000000   2.222475603   2.091277867
O        1.789048382   2.181611337   3.680997644
O        0.000000000   0.094692610   4.074939453
O        1.789048378   4.309172621   1.697107385
O        1.789048378   4.309172621   9.846800870
O        1.789048445   2.225288837   0.000000000
O        0.000000000   2.178921175   5.771954126
O        0.000000000   0.094692610   7.468968810
V        0.000000000   6.090272872   7.491654131
V        1.789048422   7.125561135   9.824292681
V        1.789048422   7.125561135   1.719615572
V        0.000000000   6.090272872   4.052254109
O        1.789048372   6.587379715   7.863231908
O        0.000000000   6.628243908   9.452951576
O        0.000000000   6.628243908   2.090956677
O        1.789048372   6.587379715   3.680676334
O        0.000000000   4.500680060   4.074847541
O        1.789048469   8.715159229   1.697013642
O        1.789048469   8.715159229   9.846894612
O        1.789048393   6.630933371   0.000000000
O        0.000000000   6.584567474   5.771954126
O        0.000000000   4.500680060   7.469060723
V        3.578096707   1.684294310   7.491569664
V        5.367145100   2.719586117   9.824208117
V        5.367145100   2.719586117   1.719700137
V        3.578096707   1.684294310   4.052338577
O        5.367145047   2.181611337   7.862910598
O        3.578096707   2.222475584   9.452630318
O        3.578096707   2.222475584   2.091277935
O        5.367145047   2.181611337   3.680997644
O        3.578096707   0.094695077   4.074939950
O        5.367145051   4.309172621   1.697107385
O        5.367145051   4.309172621   9.846800870
O        5.367144984   2.225288837   0.000000000
O        3.578096707   2.178921554   5.771954126
O        3.578096707   0.094695077   7.468968314
V        3.578096707   6.090274056   7.491654107
V        5.367145007   7.125561135   9.824292681
V        5.367145007   7.125561135   1.719615572
V        3.578096707   6.090274056   4.052254134
O        5.367145057   6.587379715   7.863231908
O        3.578096707   6.628243689   9.452951672
O        3.578096707   6.628243689   2.090956581
O        5.367145057   6.587379715   3.680676334
O        3.578096707   4.500678517   4.074847608
O        5.367144960   8.715159229   1.697013642
O        5.367144960   8.715159229   9.846894612
O        5.367145036   6.630933371   0.000000000
O        3.578096707   6.584566823   5.771954126
O        3.578096707   4.500678517   7.469060656
End final coordinates

     Writing output data file ovac1.save/

     General routines

     Parallel routines

     Hubbard U routines

   This run was terminated on:   0:40:55   2Jun2024

   JOB DONE.