     Program PWSCF v.6.4.1 starts on 12Mar2024 at  1:22:38

     R & G space division:  proc/nbgrp/npool/nimage =      32
     Reading input from interface.rlx.in

     Current dimensions of program PWSCF are:
     Max number of different atomic species (ntypx) = 10
     Max number of k-points (npk) =  40000
     Max angular momentum in pseudopotentials (lmaxx) =  3

     IMPORTANT: XC functional enforced from input :
     Exchange-correlation      = VDW-DF ( 1  4  4  0 1 0)
     Any further DFT definition will be discarded
     Please, verify this is what you really want

               file V.pbesol-spnl-kjpaw_psl.1.0.0.UPF: wavefunction(s)  3P 3D renormalized
               file O.pbesol-n-kjpaw_psl.1.0.0.UPF: wavefunction(s)  2S 2P renormalized
               file C.pbesol-n-kjpaw_psl.1.0.0.UPF: wavefunction(s)  2S 2P renormalized

     Subspace diagonalization in iterative solution of the eigenvalue problem:
     one sub-group per band group will be used

     bravais-lattice index     =            0
     lattice parameter (alat)  =      30.2219  a.u.
     unit-cell volume          =   28307.6739 (a.u.)^3
     number of atoms/cell      =          176
     number of atomic types    =            3
     number of electrons       =      1040.00
     number of Kohn-Sham states=          624
     kinetic-energy cutoff     =      40.0000  Ry
     charge density cutoff     =     400.0000  Ry
     convergence threshold     =      1.0E-06
     mixing beta               =       0.4000
     number of iterations used =            8  local-TF  mixing
     Exchange-correlation      = VDW-DF ( 1  4  4  0 1 0)
     nstep                     =          500

     celldm(1)=  30.221920  celldm(2)=   0.000000  celldm(3)=   0.000000
     celldm(4)=   0.000000  celldm(5)=   0.000000  celldm(6)=   0.000000

     crystal axes: (cart. coord. in units of alat)
               a(1) = (   1.000000   0.000000   0.000000 )
               a(2) = (  -0.522247   0.468590   0.000000 )
               a(3) = (   0.000000   0.000000   2.188492 )

     reciprocal axes: (cart. coord. in units 2 pi/alat)
               b(1) = (  1.000000  1.114507 -0.000000 )
               b(2) = (  0.000000  2.134061  0.000000 )
               b(3) = (  0.000000 -0.000000  0.456936 )

     PseudoPot. # 1 for V  read from file:
     /home/mpicuntureo/pseudos/V.pbesol-spnl-kjpaw_psl.1.0.0.UPF
     MD5 check sum: d709b3179d4cab0f72010db8785d50db
     Pseudo is Projector augmented-wave + core cor, Zval = 13.0
     Generated using "atomic" code by A. Dal Corso v.6.3
     Shape of augmentation charge: PSQ
     Using radial grid of 1181 points,  6 beta functions with:
                l(1) =   0
                l(2) =   0
                l(3) =   1
                l(4) =   1
                l(5) =   2
                l(6) =   2
     Q(r) pseudized with 0 coefficients

     PseudoPot. # 2 for O  read from file:
     /home/mpicuntureo/pseudos/O.pbesol-n-kjpaw_psl.1.0.0.UPF
     MD5 check sum: cb766521a97cf798d01896eaf7ac9a0a
     Pseudo is Projector augmented-wave + core cor, Zval =  6.0
     Generated using "atomic" code by A. Dal Corso v.6.3
     Shape of augmentation charge: PSQ
     Using radial grid of 1095 points,  4 beta functions with:
                l(1) =   0
                l(2) =   0
                l(3) =   1
                l(4) =   1
     Q(r) pseudized with 0 coefficients

     PseudoPot. # 3 for C  read from file:
     /home/mpicuntureo/pseudos/C.pbesol-n-kjpaw_psl.1.0.0.UPF
     MD5 check sum: f9b2fe17d1f478429498b05d17159f9e
     Pseudo is Projector augmented-wave + core cor, Zval =  4.0
     Generated using "atomic" code by A. Dal Corso v.6.3
     Shape of augmentation charge: PSQ
     Using radial grid of 1073 points,  4 beta functions with:
                l(1) =   0
                l(2) =   0
                l(3) =   1
                l(4) =   1
     Q(r) pseudized with 0 coefficients

     vdW kernel table read from file vdW_kernel_table
     MD5 check sum: 8c4337f4b28e1601c069d7ef7b6561bc

     atomic species   valence    mass     pseudopotential
        V             13.00    50.94150     V ( 1.00)
        O              6.00    15.99940     O ( 1.00)
        C              4.00    12.01100     C ( 1.00)

     No symmetry found

   Cartesian axes

     site n.     atom                  positions (alat units)
         1           V   tau(   1) = (   0.2369662   0.0851754   0.4905620  )
         2           V   tau(   2) = (   0.5543564   0.3985845   0.4917909  )
         3           V   tau(   3) = (   0.3960608   0.2426841   0.4913374  )
         4           V   tau(   4) = (  -0.2699674   0.3784192   0.5620181  )
         5           V   tau(   5) = (   0.5721302   0.2210335   0.5623071  )
         6           V   tau(   6) = (   0.4120937   0.0656310   0.5609954  )
         7           V   tau(   7) = (  -0.1106844   0.2451875   0.5617549  )
         8           V   tau(   8) = (   0.7327084   0.0883647   0.5605560  )
         9           V   tau(   9) = (   0.0508954   0.4030983   0.5616794  )
        10           V   tau(  10) = (   0.0717607   0.2201624   0.5533652  )
        11           V   tau(  11) = (   0.9100447   0.0665615   0.4920768  )
        12           V   tau(  12) = (   0.2285903   0.3781161   0.4932859  )
        13           V   tau(  13) = (   0.2325025   0.0879346   0.7689855  )
        14           V   tau(  14) = (   0.5510758   0.4003643   0.7688270  )
        15           V   tau(  15) = (   0.3916839   0.2440253   0.7687185  )
        16           V   tau(  16) = (  -0.2738305   0.3793215   0.8457827  )
        17           V   tau(  17) = (   0.5668909   0.2231498   0.8455931  )
        18           V   tau(  18) = (   0.4076726   0.0669632   0.8458837  )
        19           V   tau(  19) = (  -0.1047959   0.2429442   0.8455997  )
        20           V   tau(  20) = (   0.7359572   0.0866127   0.8459968  )
        21           V   tau(  21) = (   0.0544565   0.3989790   0.8454700  )
        22           V   tau(  22) = (   0.0702992   0.2217956   0.7685995  )
        23           V   tau(  23) = (   0.9110384   0.0656507   0.7689765  )
        24           V   tau(  24) = (   0.2296691   0.3781627   0.7686914  )
        25           O   tau(  25) = (  -0.3533285   0.4632381   0.5244590  )
        26           O   tau(  26) = (   0.4890450   0.3055385   0.5246158  )
        27           O   tau(  27) = (   0.3283095   0.1504528   0.5229755  )
        28           O   tau(  28) = (   0.3194416   0.0019866   0.5259040  )
        29           O   tau(  29) = (   0.6391806   0.3139455   0.5293879  )
        30           O   tau(  30) = (   0.4794940   0.1571435   0.5287462  )
        31           O   tau(  31) = (  -0.0132284   0.3062491   0.5321309  )
        32           O   tau(  32) = (   0.8260636   0.1520510   0.5276416  )
        33           O   tau(  33) = (   0.1438445   0.4640940   0.5274313  )
        34           O   tau(  34) = (  -0.0217626   0.1600587   0.5283449  )
        35           O   tau(  35) = (   0.8166382   0.0035439   0.5213654  )
        36           O   tau(  36) = (   0.1348107   0.3141238   0.5300480  )
        37           O   tau(  37) = (   0.9102994   0.0708961   0.3924197  )
        38           O   tau(  38) = (   0.2234660   0.3769519   0.3937735  )
        39           O   tau(  39) = (  -0.1152278   0.2503439   0.6613008  )
        40           O   tau(  40) = (   0.7279102   0.0940450   0.6598546  )
        41           O   tau(  41) = (   0.0458771   0.4090174   0.6611412  )
        42           O   tau(  42) = (  -0.2639337   0.3731292   0.6612337  )
        43           O   tau(  43) = (   0.5771164   0.2144957   0.6615201  )
        44           O   tau(  44) = (   0.4161952   0.0586336   0.6602102  )
        45           O   tau(  45) = (  -0.1883589   0.3124459   0.5212168  )
        46           O   tau(  46) = (   0.6526516   0.1549960   0.5210938  )
        47           O   tau(  47) = (   0.4917142  -0.0022357   0.5204174  )
        48           O   tau(  48) = (   0.1485782   0.1561242   0.5188132  )
        49           O   tau(  49) = (   0.9928048  -0.0014709   0.5182714  )
        50           O   tau(  50) = (   0.3120125   0.3108313   0.5185772  )
        51           O   tau(  51) = (   0.2362412   0.0858279   0.3911249  )
        52           O   tau(  52) = (   0.5565577   0.3970641   0.3921412  )
        53           O   tau(  53) = (   0.3989679   0.2424867   0.3916820  )
        54           O   tau(  54) = (  -0.3565810   0.4636156   0.8012034  )
        55           O   tau(  55) = (   0.4841918   0.3073107   0.8005197  )
        56           O   tau(  56) = (   0.3248773   0.1511856   0.8012010  )
        57           O   tau(  57) = (   0.3139464   0.0045570   0.8126605  )
        58           O   tau(  58) = (   0.6324404   0.3169630   0.8124035  )
        59           O   tau(  59) = (   0.4731592   0.1607095   0.8123933  )
        60           O   tau(  60) = (  -0.0111363   0.3052774   0.8119928  )
[...]
       162           C   tau( 162) = (   0.6230866   0.0801569   0.0053855  )
       163           C   tau( 163) = (   0.1694752   0.0190522   0.0035694  )
       164           C   tau( 164) = (   0.5887732   0.3450252   0.0042687  )
       165           C   tau( 165) = (   0.5303207   0.2024204   0.0049373  )
       166           C   tau( 166) = (  -0.5039731   0.4672744   0.0029347  )
       167           C   tau( 167) = (   0.4375794   0.3246495   0.0032919  )
       168           C   tau( 168) = (   0.3791238   0.1820402   0.0038870  )
       169           C   tau( 169) = (   0.3448174   0.4468978   0.0030656  )
       170           C   tau( 170) = (   0.2863724   0.3042763   0.0028493  )
       171           C   tau( 171) = (   0.2279286   0.1616659   0.0030407  )
       172           C   tau( 172) = (   0.1936091   0.4265169   0.0038764  )
       173           C   tau( 173) = (   0.1351635   0.2838973   0.0032325  )
       174           C   tau( 174) = (   0.0423951   0.4061403   0.0048951  )
       175           C   tau( 175) = (   0.4718806   0.0598007   0.0053706  )
       176           C   tau( 176) = (   0.3206685   0.0394311   0.0045875  )

     number of k points=     4  gaussian smearing, width (Ry)=  0.1000
                       cart. coord. in units 2pi/alat
        k(    1) = (   0.0000000   0.0000000   0.0000000), wk =   0.5000000
        k(    2) = (   0.0000000  -1.0670305   0.0000000), wk =   0.5000000
        k(    3) = (  -0.5000000  -0.5572533   0.0000000), wk =   0.5000000
        k(    4) = (  -0.5000000  -1.6242837   0.0000000), wk =   0.5000000

     Check: negative core charge=   -0.000004

     Initial potential from superposition of free atoms

     starting charge 1039.97582, renormalised to 1040.00000

     negative rho (up, down):  3.630E-03 0.000E+00

     %%%%%%%%%%%%%%%%%%%%%%%%%%%%%%%%%%%%%%%%%%%%%%%%%%%%%%%%%%%%%%%%%%%%%%%%
     %                                                                      %
     % You are using vdW-DF, which was implemented by the Thonhauser group. %
     % Please cite the following two papers that made this development      %
[...]

   -66.2064 -66.1936 -65.9196 -65.8944 -65.8878 -65.8595 -65.8567 -65.8406
   -65.8343 -65.8251 -65.8233 -65.8217 -65.8115 -65.8054 -65.7777 -65.7712
   -65.7502 -65.7436 -65.6802 -65.6785 -65.6624 -65.6613 -65.6601 -65.6569
   -40.4010 -40.1192 -39.9910 -39.9719 -39.9641 -39.9287 -39.9121 -39.8761
   -39.8704 -39.8494 -39.8478 -39.8444 -39.8424 -39.8422 -39.8298 -39.8270
   -39.8235 -39.8120 -39.8095 -39.8012 -39.7760 -39.7672 -39.7406 -39.7386
   -39.7297 -39.7134 -39.7073 -39.6976 -39.6956 -39.6934 -39.6933 -39.6828
   -39.6800 -39.6797 -39.6765 -39.6741 -39.6727 -39.6541 -39.6459 -39.6393
   -39.6311 -39.6283 -39.6269 -39.6206 -39.6191 -39.6119 -39.6092 -39.6017
   -39.5996 -39.5971 -39.5908 -39.5883 -39.5830 -39.5802 -39.5757 -39.5746
   -39.5729 -39.5666 -39.5596 -39.5256 -39.5191 -39.5109 -39.4959 -39.4794
   -39.4749 -39.4708 -39.4654 -39.4605 -39.4535 -39.4483 -39.4353 -39.4212
   -22.8991 -19.9092 -19.9012 -19.6759 -19.6372 -19.5218 -19.5134 -19.4931
   -19.4057 -19.3046 -19.0605 -19.0375 -19.0306 -19.0261 -18.9959 -18.9595
   -18.9358 -18.9194 -18.9174 -18.9029 -18.8575 -18.8491 -18.8204 -18.7540
   -18.6915 -18.5713 -18.5471 -18.4906 -18.4460 -18.4366 -18.4269 -18.4143
   -18.3917 -18.3900 -18.3760 -18.3238 -18.2958 -18.2674 -18.2588 -18.2535
   -18.2312 -18.2236 -18.2196 -18.2180 -18.2110 -18.2094 -18.1966 -18.1870
   -18.1793 -18.1283 -18.0987 -18.0792 -18.0041 -17.8388 -17.7944 -17.7436
   -17.7237 -17.7180 -17.7021 -17.6953 -17.6648 -17.6526 -17.6518 -17.6359
   -17.6303 -17.5926 -17.5719 -17.5565 -17.5437 -17.5227 -17.4700 -17.4651
   -17.4252 -17.4071 -17.4038 -17.3901 -17.3834 -17.3804 -17.2278 -17.1791
   -17.1495 -17.1281 -16.9151 -16.6671 -16.3682 -16.3638 -16.1848 -16.1626
   -16.1623 -16.0632 -15.9480 -15.7223 -15.0256 -15.0237 -15.0203 -15.0178
   -14.8338 -14.8145 -14.7993 -14.7718 -14.7025 -14.6624 -14.6586 -14.5564
   -14.4630 -13.9834 -13.7840 -13.5927 -13.3891 -13.3880 -13.2140 -13.1646
   -12.1314 -12.1305 -11.9917 -11.9841 -11.9829 -11.9403 -11.9383 -11.9203
   -11.8505 -11.7652 -11.7460 -11.6549 -11.0245 -11.0238 -10.9138 -10.9123
   -10.8837 -10.8275 -10.7481 -10.7050  -9.9105  -9.9101  -9.8424  -9.8418
    -9.7858  -9.7501  -9.6908  -9.6386  -9.6375  -9.6316  -9.4889  -9.4707
    -8.9102  -8.9096  -8.7769  -8.7075  -8.4314  -8.4294  -8.3685  -8.3278
    -8.3016  -8.2993  -8.2017  -8.1816  -8.1269  -8.1088  -7.4607  -7.3881
    -7.3452  -7.2841  -7.1250  -7.1117  -7.1023  -7.0863  -7.0862  -6.9826
    -6.9479  -6.9390  -6.9263  -6.9228  -6.9218  -6.9212  -6.8646  -6.8503
    -6.8396  -6.8162  -6.8151  -6.8138  -6.8065  -6.8059  -6.7880  -6.7790
    -6.7413  -6.7315  -6.7279  -6.7045  -6.6972  -6.6638  -6.6506  -6.6491
    -6.6237  -6.6214  -6.6208  -6.4953  -6.4471  -6.4456  -6.3650  -6.3603
    -6.3398  -6.3203  -6.3123  -6.3079  -6.2776  -6.2277  -6.2234  -6.1929
    -6.1522  -6.1376  -6.1037  -6.0994  -6.0476  -6.0120  -5.9979  -5.9924
    -5.9790  -5.9668  -5.9519  -5.9004  -5.8910  -5.8738  -5.8567  -5.8504
    -5.8266  -5.8180  -5.8002  -5.7954  -5.7951  -5.7944  -5.7693  -5.7400
    -5.7191  -5.6968  -5.6724  -5.6350  -5.6014  -5.5947  -5.5905  -5.5764
    -5.4966  -5.4925  -5.4656  -5.4441  -5.4330  -5.4317  -5.4291  -5.4159
    -5.3301  -5.3176  -5.3084  -5.2839  -5.2648  -5.2586  -5.2188  -5.2136
    -5.2106  -5.1621  -5.1495  -5.0944  -5.0645  -5.0504  -5.0336  -5.0131
    -5.0036  -4.9730  -4.9663  -4.9422  -4.9317  -4.9275  -4.8998  -4.8681
    -4.8421  -4.8237  -4.7667  -4.7188  -4.6891  -4.6445  -4.6343  -4.6153
    -4.6069  -4.5844  -4.5593  -4.5329  -4.4822  -4.4382  -4.4228  -4.4208
    -4.4164  -4.4017  -4.3846  -4.3690  -4.3397  -4.3128  -4.2922  -4.2811
    -4.2747  -4.2477  -4.2321  -4.2227  -4.2099  -4.1861  -4.1635  -4.1493
    -4.1252  -4.0915  -4.0854  -4.0686  -4.0659  -4.0608  -4.0407  -4.0204
    -4.0106  -4.0013  -3.9939  -3.9742  -3.9546  -3.9400  -3.9301  -3.9039
    -3.8953  -3.8900  -3.8511  -3.8364  -3.8293  -3.8186  -3.8104  -3.7938
    -3.7583  -3.7568  -3.7448  -3.7423  -3.7327  -3.7230  -3.7128  -3.6955
    -3.6845  -3.6627  -3.6515  -3.6241  -3.5827  -3.5468  -3.5160  -3.5037
    -3.4802  -3.4452  -3.4282  -3.3957  -3.3742  -3.3643  -3.3497  -3.3416
    -3.3257  -3.3109  -3.3014  -3.2848  -3.2813  -3.2480  -3.2359  -3.1930
    -3.1707  -3.1620  -3.1482  -3.1355  -3.0952  -3.0439  -3.0144  -3.0041
    -2.9661  -2.9350  -2.9127  -2.8718  -2.8547  -2.8385  -2.8260  -2.8221
    -2.8062  -2.8037  -2.7946  -2.7698  -2.7563  -2.7414  -2.7336  -2.7208
[...]
    -2.2806  -2.2529  -2.2285  -2.2088  -2.2021  -2.1683  -2.1487  -2.0928
    -2.0779  -2.0533  -2.0379  -2.0222  -1.9871  -1.9444  -1.5728   0.0292
     0.0571   0.1019   0.3163   0.3268   0.3633   0.4220   0.4268   0.5763
     0.6199   0.6424   0.6500   0.6733   0.7412   0.7575   1.0603   1.0633
     1.0929   1.1109   1.1225   1.1511   1.2193   1.2299   1.2824   1.3144
     1.3335   1.3674   1.4078   1.4087   1.4310   1.4333   1.4351   1.4488
     1.4622   1.5138   1.5708   1.5792   1.5974   1.6304   1.6344   1.6622
     1.6729   1.6748   1.7097   1.7177   1.7344   1.7458   1.7775   1.7951
     1.8155   1.8188   1.8411   1.8523   1.8690   1.8750   1.8975   1.9156
     1.9265   1.9539   1.9662   1.9781   2.0099   2.0244   2.0851   2.1046
     2.1205   2.1504   2.1560   2.1936   2.2270   2.2415   2.2762   2.2878
     2.3165   2.3378   2.3694   2.3868   2.4061   2.4465   2.4661   2.5271
     2.5977   2.6361   2.6817   2.6934   2.6979   2.7348   2.7458   2.7624
     2.8130   2.8235   2.8808   2.9036   2.9093   2.9136   2.9282   2.9577
     2.9948   3.0001   3.0216   3.0398   3.0713   3.0752   3.1073   3.1878

     the Fermi energy is    -0.5970 ev

!    total energy              =   -9449.74027685 Ry
     Harris-Foulkes estimate   =   -9449.74027681 Ry
     estimated scf accuracy    <          5.1E-09 Ry

     total all-electron energy =    -61728.250445 Ry

     The total energy is the sum of the following terms:

     one-electron contribution = -101874.53655153 Ry
     hartree contribution      =   51153.52946264 Ry
     xc contribution           =   -1393.27404263 Ry
     ewald contribution        =   45563.44168414 Ry
     one-center paw contrib.   =   -2897.51749211 Ry
     smearing contrib. (-TS)   =      -1.38333736 Ry

     convergence has been achieved in  11 iterations

     negative rho (up, down):  5.679E-02 0.000E+00

     Forces acting on atoms (cartesian axes, Ry/au):

     atom    1 type  1   force =    -0.00075800    0.00044039   -0.00012582
     atom    2 type  1   force =     0.00030513   -0.00023906   -0.00010387
     atom    3 type  1   force =     0.00018855    0.00014628   -0.00001081
     atom    4 type  1   force =     0.00026122    0.00002056    0.00002838
     atom    5 type  1   force =     0.00014384   -0.00032553   -0.00097395
     atom    6 type  1   force =    -0.00016314    0.00023932   -0.00034532
     atom    7 type  1   force =    -0.00016767    0.00093427   -0.00026485
     atom    8 type  1   force =    -0.00011703    0.00031958   -0.00116480
     atom    9 type  1   force =    -0.00070915    0.00058647   -0.00038074
     atom   10 type  1   force =     0.00006324    0.00034765    0.00067466
     atom   11 type  1   force =     0.00023362    0.00008000    0.00117532
     atom   12 type  1   force =     0.00017042   -0.00004295    0.00087879
     atom   13 type  1   force =     0.01387911   -0.01611614    0.01844450
     atom   14 type  1   force =     0.00257280   -0.00893473    0.01429203
     atom   15 type  1   force =     0.00500911   -0.00622711    0.01320920
     atom   16 type  1   force =    -0.00673361    0.00713518   -0.01561530
     atom   17 type  1   force =    -0.00623854    0.00780866   -0.01556609
     atom   18 type  1   force =    -0.00561599    0.00887842   -0.01525236
     atom   19 type  1   force =    -0.00370116   -0.00771185   -0.01138827
     atom   20 type  1   force =     0.00511522   -0.00729452   -0.01405845
     atom   21 type  1   force =     0.00594429    0.00055850   -0.01210147
     atom   22 type  1   force =    -0.00433295    0.01099862    0.18392103
     atom   23 type  1   force =    -0.00824903   -0.00079399    0.01600080
     atom   24 type  1   force =     0.00459517    0.01174688    0.01605494
     atom   25 type  2   force =     0.00018618   -0.00066412    0.00046328
     atom   26 type  2   force =     0.00080736   -0.00094529    0.00056357
     atom   27 type  2   force =    -0.00006095   -0.00050657    0.00032396
     atom   28 type  2   force =     0.00059762   -0.00037629   -0.00019281
     atom   29 type  2   force =     0.00013584   -0.00035046   -0.00032820
     atom   30 type  2   force =     0.00047202   -0.00039165   -0.00028492
     atom   31 type  2   force =    -0.00081177    0.00031769    0.00057080
     atom   32 type  2   force =    -0.00029866    0.00083134    0.00071723
     atom   33 type  2   force =    -0.00030611   -0.00045525    0.00061749
     atom   34 type  2   force =     0.00148242    0.00036786   -0.00027554
     atom   35 type  2   force =    -0.00083329    0.00069876   -0.00019718
     atom   36 type  2   force =    -0.00068843   -0.00145864   -0.00070527
     atom   37 type  2   force =     0.00050800    0.00054262    0.00064349
     atom   38 type  2   force =    -0.00006370   -0.00058387    0.00066444
     atom   39 type  2   force =     0.00038428   -0.00024253    0.00011102
     atom   40 type  2   force =    -0.00011613   -0.00048261   -0.00058220
     atom   41 type  2   force =     0.00011424   -0.00068832    0.00015098
     atom   42 type  2   force =     0.00013077    0.00045074    0.00051025
     atom   43 type  2   force =    -0.00001059   -0.00013072   -0.00049299
     atom   44 type  2   force =    -0.00039159    0.00018141    0.00020359
     atom   45 type  2   force =    -0.00060716   -0.00040929   -0.00117715
     atom   46 type  2   force =     0.00037346    0.00026912    0.00096343
     atom   47 type  2   force =     0.00074042    0.00069180   -0.00125177
     atom   48 type  2   force =     0.00004002    0.00020906   -0.00033688
     atom   49 type  2   force =     0.00035831    0.00021012    0.00064565
     atom   50 type  2   force =    -0.00013623   -0.00026073    0.00065652
     atom   51 type  2   force =     0.00113926   -0.00056336   -0.00052021
     atom   52 type  2   force =    -0.00023452    0.00090703    0.00000155
     atom   53 type  2   force =    -0.00074765    0.00066584    0.00025443
     atom   54 type  2   force =    -0.00107662    0.00812952    0.00503904
     atom   55 type  2   force =    -0.00163298    0.00587256    0.00481858
     atom   56 type  2   force =    -0.00414559    0.00501875    0.00498989
     atom   57 type  2   force =     0.00389737   -0.00634275   -0.00711461
     atom   58 type  2   force =     0.00524711   -0.00770416   -0.00596985
     atom   59 type  2   force =     0.00486490   -0.00824155   -0.00594133
     atom   60 type  2   force =     0.00472364   -0.00030109   -0.01240684
[...]
     atom  162 type  3   force =     0.00010441    0.00060597   -0.00048970
     atom  163 type  3   force =     0.00001870    0.00005181   -0.00163315
     atom  164 type  3   force =     0.00018347    0.00037175   -0.00163700
     atom  165 type  3   force =     0.00027641   -0.00003790   -0.00110341
     atom  166 type  3   force =     0.00017063   -0.00025807   -0.00195925
     atom  167 type  3   force =     0.00004123    0.00026558   -0.00205394
     atom  168 type  3   force =     0.00025648    0.00006320   -0.00173540
     atom  169 type  3   force =     0.00028065   -0.00017960   -0.00175002
     atom  170 type  3   force =     0.00031790    0.00017420   -0.00130929
     atom  171 type  3   force =     0.00008470   -0.00001530   -0.00087005
     atom  172 type  3   force =     0.00024624   -0.00001751   -0.00076921
     atom  173 type  3   force =     0.00046676    0.00028936    0.00100913
     atom  174 type  3   force =     0.00025601    0.00037339    0.00004974
     atom  175 type  3   force =    -0.00008041    0.00017435   -0.00068401
     atom  176 type  3   force =     0.00039315   -0.00000674   -0.00129142

     Total force =     0.007711     Total SCF correction =     0.000219

     bfgs converged in  33 scf cycles and  32 bfgs steps
     (criteria: energy <  1.0E-04 Ry, force <  1.0E-02 Ry/Bohr)

     End of BFGS Geometry Optimization

     Final energy   =   -9449.7402768522 Ry
Begin final coordinates

ATOMIC_POSITIONS (crystal)
V        0.331706205   0.181990763   0.219848533
V        0.999493173   0.851250004   0.221359276
V        0.667222248   0.518503856   0.221006520
V        0.152703275   0.807432761   0.254581715
V        0.818917148   0.471324079   0.254237575
V        0.485236457   0.139719301   0.253943355
V        0.164230645   0.526558773   0.253965079
V        0.832177388   0.192334478   0.253012568
V        0.501334587   0.863896216   0.254106756
V        0.318422554   0.468014547   0.251324320
V        0.986379471   0.145175154   0.221836709
V        0.650819210   0.807243474   0.223319967
V        0.330506110   0.187657740   0.351376980    0   0   0
V        0.997284420   0.854401840   0.351304520    0   0   0
V        0.663651710   0.520764830   0.351254970    0   0   0
V        0.148925770   0.809495250   0.386468370    0   0   0
V        0.815592870   0.476215340   0.386381710    0   0   0
V        0.482303510   0.142903530   0.386514520    0   0   0
V        0.165966980   0.518457800   0.386384710    0   0   0
V        0.832487640   0.184836750   0.386566170    0   0   0
V        0.499121230   0.851445580   0.386325480    0   0   0
V        0.317491800   0.473325230   0.351200600    0   0   0
V        0.984206490   0.140102520   0.351372830    0   0   0
V        0.651133840   0.807022160   0.351242580    0   0   0
O        0.163803669   0.990551596   0.237819269
O        0.830330308   0.652462861   0.237407628
O        0.495868417   0.322150865   0.235983805
O        0.321943457   0.006092035   0.238112620
O        0.990033267   0.670450189   0.238662754
O        0.654662194   0.335211269   0.238163823
O        0.329622516   0.651537973   0.239933837
O        0.996881906   0.328937682   0.237209331
O        0.661267372   0.993325487   0.236795828
O        0.154441780   0.339196620   0.241277987
O        0.821788638   0.010650981   0.236154507
O        0.489608207   0.673010263   0.243876056
O        0.992823676   0.155112220   0.175618745
O        0.641268113   0.798328322   0.177223628
O        0.165527784   0.540782041   0.299836183
O        0.834211258   0.206915802   0.298845010
O        0.505561654   0.883628819   0.299870476
O        0.150488864   0.790651191   0.300327887
O        0.815819802   0.453950732   0.300025283
O        0.482583049   0.123490227   0.299733558
O        0.164336538   0.672302578   0.233100333
O        0.825494361   0.332373374   0.232239004
O        0.485395046  -0.007617777   0.232855931
O        0.322707947   0.334498919   0.229600009
O        0.989737389  -0.005091252   0.234317724
O        0.662999754   0.666713253   0.235706019
O        0.329146418   0.169871067   0.173875780
O        1.000299988   0.847098945   0.175170016
O        0.670919943   0.520334459   0.174796611
O        0.160121590   0.989384010   0.366098470    0   0   0
O        0.826691550   0.655819710   0.365786070    0   0   0
O        0.493374610   0.322639310   0.366097380    0   0   0
O        0.319025180   0.009724960   0.371333610    0   0   0
O        0.985697730   0.676418320   0.371216180    0   0   0
O        0.652270930   0.342963800   0.371211520    0   0   0
O        0.329097370   0.651480560   0.371028550    0   0   0
[...]
C        0.712421990   0.171059680   0.002460820    0   0   0
C        0.190709030   0.040658520   0.001630980    0   0   0
C        0.973306060   0.736304900   0.001950530    0   0   0
C        0.755919530   0.431977370   0.002256040    0   0   0
C        0.016807270   0.997192160   0.001340980    0   0   0
C        0.799403330   0.692821740   0.001504180    0   0   0
C        0.582008770   0.388484820   0.001776100    0   0   0
C        0.842887930   0.953707140   0.001400800    0   0   0
C        0.625490320   0.649344160   0.001301950    0   0   0
C        0.408106360   0.345004940   0.001389420    0   0   0
C        0.668964960   0.910213020   0.001771250    0   0   0
C        0.451568890   0.605854230   0.001477050    0   0   0
C        0.495041120   0.866728140   0.002236740    0   0   0
C        0.538528800   0.127618280   0.002454000    0   0   0
C        0.364614730   0.084148470   0.002096190    0   0   0
End final coordinates

     Writing output data file interface.save/

     General routines

     Parallel routines

   This run was terminated on:  15:34:55  25Mar2024

   JOB DONE.