     Program PWSCF v.6.5 starts on 13Nov2021 at 12:16: 8

     R & G space division:  proc/nbgrp/npool/nimage =      20
     Reading input from v2o5.rlx.in

     Current dimensions of program PWSCF are:
     Max number of different atomic species (ntypx) = 10
     Max number of k-points (npk) =  40000
     Max angular momentum in pseudopotentials (lmaxx) =  3
               file V.pbe-spnl-kjpaw_psl.1.0.0.UPF: wavefunction(s)  3P 3D renormalized
               file O.pbe-n-kjpaw_psl.1.0.0.UPF: wavefunction(s)  2S 2P renormalized

     Subspace diagonalization in iterative solution of the eigenvalue problem:
     a serial algorithm will be used

     Message from routine setup:
     using ibrav=0 with symmetry is DISCOURAGED, use correct ibrav instead

     bravais-lattice index     =            0
     lattice parameter (alat)  =       6.7498  a.u.
     unit-cell volume          =    1277.4049 (a.u.)^3
     number of atoms/cell      =           14
     number of atomic types    =            2
     number of electrons       =       112.00
     number of Kohn-Sham states=           67
     kinetic-energy cutoff     =      65.0000  Ry
     charge density cutoff     =     650.0000  Ry
     convergence threshold     =      1.0E-12
     mixing beta               =       0.2000
     number of iterations used =            8  local-TF  mixing
     Exchange-correlation= SLA PW PBX PBC
                           (   1   4   3   4   0   0   0)
     nstep                     =          550

     celldm(1)=   6.749792  celldm(2)=   0.000000  celldm(3)=   0.000000
     celldm(4)=   0.000000  celldm(5)=   0.000000  celldm(6)=   0.000000

     crystal axes: (cart. coord. in units of alat)
               a(1) = (   1.000000   0.000000   0.000000 )
               a(2) = (   0.000000   1.282028   0.000000 )
               a(3) = (   0.000000   0.000000   3.240110 )

     reciprocal axes: (cart. coord. in units 2 pi/alat)
               b(1) = (  1.000000  0.000000  0.000000 )
               b(2) = (  0.000000  0.780014  0.000000 )
               b(3) = (  0.000000  0.000000  0.308631 )

     PseudoPot. # 1 for V  read from file:
     ~/pseudos/V.pbe-spnl-kjpaw_psl.1.0.0.UPF
     MD5 check sum: Not computed, couldn't open file
     Pseudo is Projector augmented-wave + core cor, Zval = 13.0
     Generated using "atomic" code by A. Dal Corso v.6.3
     Shape of augmentation charge: PSQ
     Using radial grid of 1181 points,  6 beta functions with:
                l(1) =   0
                l(2) =   0
                l(3) =   1
                l(4) =   1
                l(5) =   2
                l(6) =   2
     Q(r) pseudized with 0 coefficients

     PseudoPot. # 2 for O  read from file:
     ~/pseudos/O.pbe-n-kjpaw_psl.1.0.0.UPF
     MD5 check sum: Not computed, couldn't open file
     Pseudo is Projector augmented-wave + core cor, Zval =  6.0
     Generated using "atomic" code by A. Dal Corso v.6.3
     Shape of augmentation charge: PSQ
     Using radial grid of 1095 points,  4 beta functions with:
                l(1) =   0
                l(2) =   0
                l(3) =   1
                l(4) =   1
     Q(r) pseudized with 0 coefficients

     atomic species   valence    mass     pseudopotential
        V             13.00    50.94150     V ( 1.00)
        O              6.00    15.99940     O ( 1.00)

      8 Sym. Ops., with inversion, found ( 4 have fractional translation)

   Cartesian axes

     site n.     atom                  positions (alat units)
         1           V   tau(   1) = (   0.0000000   0.4979375   2.1007829  )
         2           V   tau(   2) = (   0.5000000   0.7840909   2.7593826  )
         3           V   tau(   3) = (   0.5000000   0.7840909   0.4807277  )
         4           V   tau(   4) = (   0.0000000   0.4979375   1.1393274  )
         5           O   tau(   5) = (   0.5000000   0.6308552   2.2079513  )
         6           O   tau(   6) = (   0.0000000   0.6511732   2.6522141  )
         7           O   tau(   7) = (   0.0000000   0.6511732   0.5878962  )
         8           O   tau(   8) = (   0.5000000   0.6308552   1.0321590  )
         9           O   tau(   9) = (   0.0000000   0.0528745   1.1528152  )
        10           O   tau(  10) = (   0.5000000   1.2291540   0.4672400  )
        11           O   tau(  11) = (   0.5000000   1.2291540   2.7728704  )
        12           O   tau(  12) = (   0.5000000   0.6434095   0.0000000  )
        13           O   tau(  13) = (   0.0000000   0.6386190   1.6200552  )
        14           O   tau(  14) = (   0.0000000   0.0528745   2.0872951  )

     number of k points=     4  Gaussian smearing, width (Ry)=  0.0200
                       cart. coord. in units 2pi/alat
        k(    1) = (   0.0000000   0.0000000   0.0000000), wk =   0.2222222
        k(    2) = (   0.0000000   0.2600046   0.0000000), wk =   0.4444444
        k(    3) = (   0.3333333   0.0000000   0.0000000), wk =   0.4444444
        k(    4) = (   0.3333333   0.2600046   0.0000000), wk =   0.8888889

     Check: negative core charge=   -0.000001

     Initial potential from superposition of free atoms

     starting charge  111.99635, renormalised to  112.00000
     Starting wfcs are   80 randomized atomic wfcs
     Checking if some PAW data can be deallocated...

     Self-consistent Calculation

     iteration #  1     ecut=    65.00 Ry     beta= 0.20
     Davidson diagonalization with overlap
     ethr =  1.00E-02,  avg # of iterations =  2.0

     total energy              =   -1273.75136418 Ry
     Harris-Foulkes estimate   =   -1274.93925122 Ry
     estimated scf accuracy    <       8.54284775 Ry

[...]

     negative rho (up, down):  1.874E-04 0.000E+00

[...]

     End of self-consistent calculation

          k = 0.0000 0.0000 0.0000 ( 11299 PWs)   bands (ev):

   -60.4004 -60.3984 -60.3895 -60.3875 -34.4041 -34.4017 -34.3941 -34.3887
   -34.3196 -34.2686 -34.2425 -34.2188 -34.2164 -34.1934 -34.1839 -34.1814
   -13.9526 -13.8317 -12.8774 -12.7657 -12.6825 -12.6293 -12.2430 -12.2421
   -12.0997 -12.0853  -0.7789  -0.7668  -0.6835  -0.5910  -0.4243  -0.0011
     0.6580   0.7382   0.9279   0.9840   1.2226   1.2706   1.4518   1.4672
     1.4759   1.5924   1.7042   1.7474   1.8199   1.9061   1.9929   2.0559
     2.2021   2.4775   2.6315   2.6596   2.7354   2.9363   2.9380   3.0279
     5.4045   5.5747   6.8072   6.9170   6.9443   7.0955   7.3037   7.5869
     7.7014   8.0804   8.0890

[...]

     the Fermi energy is     4.4256 ev

!    total energy              =   -1273.67315415 Ry
     Harris-Foulkes estimate   =   -1273.67315415 Ry
     estimated scf accuracy    <          8.4E-13 Ry

     total all-electron energy =     -9100.527071 Ry

     The total energy is the sum of the following terms:

     one-electron contribution =    -609.03431386 Ry
     hartree contribution      =     345.96478621 Ry
     xc contribution           =    -154.80618165 Ry
     ewald contribution        =    -480.40967487 Ry
     one-center paw contrib.   =    -375.38776997 Ry
     smearing contrib. (-TS)   =      -0.00000001 Ry

     convergence has been achieved in  43 iterations

[...]

     Forces acting on atoms (cartesian axes, Ry/au):

     atom    1 type  1   force =     0.00000000    0.00013309   -0.00004880
     atom    2 type  1   force =     0.00000000   -0.00013309    0.00004880
     atom    3 type  1   force =     0.00000000   -0.00013309   -0.00004880
     atom    4 type  1   force =     0.00000000    0.00013309    0.00004880
     atom    5 type  2   force =     0.00000000   -0.00000355    0.00002058
     atom    6 type  2   force =     0.00000000    0.00000355   -0.00002058
     atom    7 type  2   force =     0.00000000    0.00000355    0.00002058
     atom    8 type  2   force =     0.00000000   -0.00000355   -0.00002058
     atom    9 type  2   force =     0.00000000   -0.00012784   -0.00000218
     atom   10 type  2   force =     0.00000000    0.00012784    0.00000218
     atom   11 type  2   force =     0.00000000    0.00012784   -0.00000218
     atom   12 type  2   force =     0.00000000    0.00003802    0.00000000
     atom   13 type  2   force =     0.00000000   -0.00003802    0.00000000
     atom   14 type  2   force =     0.00000000   -0.00012784    0.00000218

     Total force =     0.000388     Total SCF correction =     0.000002

     Computing stress (Cartesian axis) and pressure

     negative rho (up, down):  3.432E-04 0.000E+00
          total   stress  (Ry/bohr**3)                   (kbar)     P=        0.39
   0.00000207   0.00000000   0.00000000            0.30        0.00        0.00
   0.00000000   0.00000357   0.00000000            0.00        0.53        0.00
   0.00000000   0.00000000   0.00000237            0.00        0.00        0.35

     BFGS Geometry Optimization

     number of scf cycles    =   1
     number of bfgs steps    =   0

     enthalpy new            =   -1273.6731541521 Ry

     new trust radius        =       0.0006387950 bohr
     new conv_thr            =            1.0E-12 Ry

     new unit-cell volume =   1277.66090 a.u.^3 (   189.32981 Ang^3 )
     density =      3.19040 g/cm^3

CELL_PARAMETERS (angstrom)
   3.572021051   0.000000000   0.000000000
   0.000000000   4.579604478   0.000000000
   0.000000000   0.000000000  11.573827794

ATOMIC_POSITIONS (crystal)
V             0.0000000000        0.3884135558        0.6483654758
V             0.5000000019        0.6115864480        0.8516345299
V             0.5000000019        0.6115864480        0.1483654739
V             0.0000000000        0.3884135558        0.3516345280
O             0.5000000019        0.4920754316        0.6814442049
O             0.0000000000        0.5079245722        0.8185558008
O             0.0000000000        0.5079245722        0.1814442030
O             0.5000000019        0.4920754316        0.3185557989
O             0.0000000000        0.0412280741        0.3557949500
O             0.5000000019        0.9587719297        0.1442050519
O             0.5000000019        0.9587719297        0.8557949519
O             0.5000000019        0.5018727200        0.0000000000
O             0.0000000000        0.4981272837        0.5000000019
O             0.0000000000        0.0412280741        0.6442050538

     Writing output data file ./v2o5.save/
     NEW-OLD atomic charge density approx. for the potential

[...]

     negative rho (up, down):  3.424E-04 0.000E+00
     extrapolated charge  112.02244, renormalised to  112.00000

[...]

     enthalpy old            =   -1273.6731541521 Ry
     enthalpy new            =   -1273.6731543202 Ry

     CASE: enthalpy_new < enthalpy_old

[...]

     Threshold (ethr) on eigenvalues was too large:
     Diagonalizing with lowered threshold

     Davidson diagonalization with overlap
     ethr =  1.44E-08,  avg # of iterations =  2.2

[...]

     WARNING: bfgs curvature condition failed, Theta= 0.969
     new trust radius        =       0.0002484733 bohr
     new conv_thr            =            1.0E-14 Ry

[...]

     number of scf cycles    =  21
     number of bfgs steps    =  20

     enthalpy old            =   -1273.6731561411 Ry
     enthalpy new            =   -1273.6731561433 Ry

     CASE: enthalpy_new < enthalpy_old

     new trust radius        =       0.0001471499 bohr
     new conv_thr            =            1.0E-14 Ry

     new unit-cell volume =   1279.10273 a.u.^3 (   189.54347 Ang^3 )
     density =      3.18680 g/cm^3

[...]

ATOMIC_POSITIONS (crystal)
V             0.0000000000        0.3883876926        0.6483712241
V             0.5000000019        0.6116123112        0.8516287816
V             0.5000000019        0.6116123112        0.1483712222
V             0.0000000000        0.3883876926        0.3516287797
O             0.5000000019        0.4919884338        0.6814563319
O             0.0000000000        0.5080115700        0.8185436738
O             0.0000000000        0.5080115700        0.1814563300
O             0.5000000019        0.4919884338        0.3185436719
O             0.0000000000        0.0416811849        0.3557835163
O             0.5000000019        0.9583188189        0.1442164856
O             0.5000000019        0.9583188189        0.8557835182
O             0.5000000019        0.5019740317        0.0000000000
O             0.0000000000        0.4980259720        0.5000000019
O             0.0000000000        0.0416811849        0.6442164875

     Writing output data file ./v2o5.save/
     NEW-OLD atomic charge density approx. for the potential

[...]

     negative rho (up, down):  3.413E-04 0.000E+00
     extrapolated charge  112.00187, renormalised to  112.00000

[...]

     Threshold (ethr) on eigenvalues was too large:
     Diagonalizing with lowered threshold

     Davidson diagonalization with overlap
     ethr =  7.13E-10,  avg # of iterations =  3.5

[...]

     bfgs converged in  22 scf cycles and  21 bfgs steps
     (criteria: energy <  1.0E-04 Ry, force <  1.0E-05Ry/Bohr, cell <  5.0E-01kbar)

     End of BFGS Geometry Optimization

     Final enthalpy =   -1273.6731561474 Ry
Begin final coordinates
     new unit-cell volume =   1279.10273 a.u.^3 (   189.54347 Ang^3 )
     density =      3.18680 g/cm^3

CELL_PARAMETERS (angstrom)
   3.571920627   0.000000000   0.000000000
   0.000000000   4.585203672   0.000000000
   0.000000000   0.000000000  11.573064855

ATOMIC_POSITIONS (crystal)
V             0.0000000000        0.3883876926        0.6483712241
V             0.5000000019        0.6116123112        0.8516287816
V             0.5000000019        0.6116123112        0.1483712222
V             0.0000000000        0.3883876926        0.3516287797
O             0.5000000019        0.4919884338        0.6814563319
O             0.0000000000        0.5080115700        0.8185436738
O             0.0000000000        0.5080115700        0.1814563300
O             0.5000000019        0.4919884338        0.3185436719
O             0.0000000000        0.0416811849        0.3557835163
O             0.5000000019        0.9583188189        0.1442164856
O             0.5000000019        0.9583188189        0.8557835182
O             0.5000000019        0.5019740317        0.0000000000
O             0.0000000000        0.4980259720        0.5000000019
O             0.0000000000        0.0416811849        0.6442164875
End final coordinates

     Writing output data file ./v2o5.save/

     Final scf calculation at the relaxed structure.
     The G-vectors are recalculated for the final unit cell
     Results may differ from those at the preceding step.

     bravais-lattice index     =            0
     lattice parameter (alat)  =       6.7498  a.u.
     unit-cell volume          =    1279.1027 (a.u.)^3
     number of atoms/cell      =           14
     number of atomic types    =            2
     number of electrons       =       112.00
     number of Kohn-Sham states=           67
     kinetic-energy cutoff     =      65.0000  Ry
     charge density cutoff     =     650.0000  Ry
     convergence threshold     =      1.0E-14
     mixing beta               =       0.2000
     number of iterations used =            8  local-TF  mixing
     Exchange-correlation= SLA PW PBX PBC
                           (   1   4   3   4   0   0   0)

     celldm(1)=   6.749792  celldm(2)=   0.000000  celldm(3)=   0.000000
     celldm(4)=   0.000000  celldm(5)=   0.000000  celldm(6)=   0.000000

     crystal axes: (cart. coord. in units of alat)
               a(1) = (   1.000024   0.000000   0.000000 )
               a(2) = (   0.000000   1.283711   0.000000 )
               a(3) = (   0.000000   0.000000   3.240089 )

     reciprocal axes: (cart. coord. in units 2 pi/alat)
               b(1) = (  0.999976  0.000000  0.000000 )
               b(2) = (  0.000000  0.778992  0.000000 )
               b(3) = (  0.000000  0.000000  0.308634 )

     PseudoPot. # 1 for V  read from file:
     ~/pseudos/V.pbe-spnl-kjpaw_psl.1.0.0.UPF
     MD5 check sum: Not computed, couldn't open file
     Pseudo is Projector augmented-wave + core cor, Zval = 13.0
     Generated using "atomic" code by A. Dal Corso v.6.3
     Shape of augmentation charge: PSQ
     Using radial grid of 1181 points,  6 beta functions with:
                l(1) =   0
                l(2) =   0
                l(3) =   1
                l(4) =   1
                l(5) =   2
                l(6) =   2
     Q(r) pseudized with 0 coefficients

     PseudoPot. # 2 for O  read from file:
     ~/pseudos/O.pbe-n-kjpaw_psl.1.0.0.UPF
     MD5 check sum: Not computed, couldn't open file
     Pseudo is Projector augmented-wave + core cor, Zval =  6.0
     Generated using "atomic" code by A. Dal Corso v.6.3
     Shape of augmentation charge: PSQ
     Using radial grid of 1095 points,  4 beta functions with:
                l(1) =   0
                l(2) =   0
                l(3) =   1
                l(4) =   1
     Q(r) pseudized with 0 coefficients

     atomic species   valence    mass     pseudopotential
        V             13.00    50.94150     V ( 1.00)
        O              6.00    15.99940     O ( 1.00)

      8 Sym. Ops., with inversion, found ( 4 have fractional translation)

   Cartesian axes

     site n.     atom                  positions (alat units)
         1           V   tau(   1) = (   0.0000000   0.4985774   2.1007802  )
         2           V   tau(   2) = (   0.5000119   0.7851332   2.7593527  )
         3           V   tau(   3) = (   0.5000119   0.7851332   0.4807359  )
         4           V   tau(   4) = (   0.0000000   0.4985774   1.1393084  )
         5           O   tau(   5) = (   0.5000119   0.6315708   2.2079789  )
         6           O   tau(   6) = (   0.0000000   0.6521398   2.6521540  )
         7           O   tau(   7) = (   0.0000000   0.6521398   0.5879346  )
         8           O   tau(   8) = (   0.5000119   0.6315708   1.0321097  )
         9           O   tau(   9) = (   0.0000000   0.0535066   1.1527701  )
        10           O   tau(  10) = (   0.5000119   1.2302040   0.4672742  )
        11           O   tau(  11) = (   0.5000119   1.2302040   2.7728144  )
        12           O   tau(  12) = (   0.5000119   0.6443894   0.0000000  )
        13           O   tau(  13) = (   0.0000000   0.6393212   1.6200443  )
        14           O   tau(  14) = (   0.0000000   0.0535066   2.0873185  )

     number of k points=     4  Gaussian smearing, width (Ry)=  0.0200
                       cart. coord. in units 2pi/alat
        k(    1) = (   0.0000000   0.0000000   0.0000000), wk =   0.2222222
        k(    2) = (   0.0000000   0.2596639   0.0000000), wk =   0.4444444
        k(    3) = (   0.3333254   0.0000000   0.0000000), wk =   0.4444444
        k(    4) = (   0.3333254   0.2596639   0.0000000), wk =   0.8888889

     Check: negative core charge=   -0.000001

     Initial potential from superposition of free atoms

     starting charge  111.99635, renormalised to  112.00000
     Starting wfcs are   80 randomized atomic wfcs
     Checking if some PAW data can be deallocated...

     Self-consistent Calculation

     iteration #  1     ecut=    65.00 Ry     beta= 0.20
     Davidson diagonalization with overlap
     c_bands:  1 eigenvalues not converged
     c_bands:  1 eigenvalues not converged
     ethr =  1.00E-06,  avg # of iterations = 18.0

[...]

     total energy              =   -1273.67326835 Ry
     Harris-Foulkes estimate   =   -1273.67326835 Ry
     estimated scf accuracy    <          5.2E-14 Ry

     iteration # 62     ecut=    65.00 Ry     beta= 0.20
     Davidson diagonalization with overlap
     ethr =  1.00E-13,  avg # of iterations =  1.0

[...]

     End of self-consistent calculation

[...]

          k = 0.3333 0.2597 0.0000 ( 11307 PWs)   bands (ev):

   -60.4111 -60.4092 -60.4057 -60.4038 -34.4145 -34.4123 -34.4089 -34.4049
   -34.3318 -34.3070 -34.2931 -34.2850 -34.2377 -34.2327 -34.2176 -34.2071
   -13.3586 -13.2366 -12.7639 -12.6558 -12.6275 -12.5865 -12.2007 -12.1802
   -12.1154 -12.0936  -1.3064  -1.2342  -0.5184  -0.4987  -0.4299  -0.1527
    -0.0783   0.0423   0.1280   0.3382   0.4162   0.5629   0.9555   0.9661
     1.0263   1.0979   1.2345   1.3276   1.4331   1.8568   2.1176   2.3067
     2.5380   2.5811   2.9262   3.1424   3.1570   3.3112   3.3464   3.3722
     5.7674   5.9500   6.6454   6.6673   7.0215   7.2109   7.2371   7.2724
     7.5212   7.5496   7.5719

     the Fermi energy is     4.4099 ev

!    total energy              =   -1273.67326835 Ry
     Harris-Foulkes estimate   =   -1273.67326835 Ry
     estimated scf accuracy    <          5.5E-15 Ry

     total all-electron energy =     -9100.527186 Ry

     The total energy is the sum of the following terms:

     one-electron contribution =    -610.02660183 Ry
     hartree contribution      =     346.39881014 Ry
     xc contribution           =    -154.80392991 Ry
     ewald contribution        =    -479.85383304 Ry
     one-center paw contrib.   =    -375.38771371 Ry
     smearing contrib. (-TS)   =      -0.00000001 Ry

     convergence has been achieved in  62 iterations

     negative rho (up, down):  3.417E-04 0.000E+00

     Forces acting on atoms (cartesian axes, Ry/au):

     atom    1 type  1   force =     0.00000000   -0.00000623   -0.00000241
     atom    2 type  1   force =     0.00000000    0.00000623    0.00000241
     atom    3 type  1   force =     0.00000000    0.00000623   -0.00000241
     atom    4 type  1   force =     0.00000000   -0.00000623    0.00000241
     atom    5 type  2   force =     0.00000000    0.00000926   -0.00000358
     atom    6 type  2   force =     0.00000000   -0.00000926    0.00000358
     atom    7 type  2   force =     0.00000000   -0.00000926   -0.00000358
     atom    8 type  2   force =     0.00000000    0.00000926    0.00000358
     atom    9 type  2   force =     0.00000000    0.00000242    0.00000710
     atom   10 type  2   force =     0.00000000   -0.00000242   -0.00000710
     atom   11 type  2   force =     0.00000000   -0.00000242    0.00000710
     atom   12 type  2   force =     0.00000000   -0.00000197    0.00000000
     atom   13 type  2   force =     0.00000000    0.00000197    0.00000000
     atom   14 type  2   force =     0.00000000    0.00000242   -0.00000710

     Total force =     0.000028     Total SCF correction =     0.000000

     Computing stress (Cartesian axis) and pressure

     negative rho (up, down):  3.417E-04 0.000E+00
          total   stress  (Ry/bohr**3)                   (kbar)     P=        0.02
   0.00000013   0.00000000   0.00000000            0.02        0.00        0.00
   0.00000000   0.00000020   0.00000000            0.00        0.03        0.00
   0.00000000   0.00000000   0.00000001            0.00        0.00        0.00

     Writing output data file ./v2o5.save/

     General routines

     Parallel routines

   This run was terminated on:  12:31:37  13Nov2021

   JOB DONE.