     Program PWSCF v.6.4.1 starts on 19Oct2024 at 20: 4:38

     R & G space division:  proc/nbgrp/npool/nimage =      32
     Reading input from liv16o40.rlx.in
Warning: card &CELL ignored
Warning: card     CELL_DYNAMICS  = "BFGS" ignored
Warning: card / ignored

     Current dimensions of program PWSCF are:
     Max number of different atomic species (ntypx) = 10
     Max number of k-points (npk) =  40000
     Max angular momentum in pseudopotentials (lmaxx) =  3

     IMPORTANT: XC functional enforced from input :
     Exchange-correlation      = VDW-DF ( 1  4  4  0 1 0)
     Any further DFT definition will be discarded
     Please, verify this is what you really want

               file V.pbesol-spnl-kjpaw_psl.1.0.0.UPF: wavefunction(s)  3P 3D renormalized
               file O.pbesol-n-kjpaw_psl.1.0.0.UPF: wavefunction(s)  2S 2P renormalized

     Subspace diagonalization in iterative solution of the eigenvalue problem:
     one sub-group per band group will be used

     bravais-lattice index     =            0
     lattice parameter (alat)  =      13.6262  a.u.
     unit-cell volume          =    4790.1372 (a.u.)^3
     number of atoms/cell      =           57
     number of atomic types    =            3
     number of electrons       =       451.00
     number of Kohn-Sham states=          271
     kinetic-energy cutoff     =      40.0000  Ry
     charge density cutoff     =     400.0000  Ry
     convergence threshold     =      1.0E-06
     mixing beta               =       0.4000
     number of iterations used =            8  plain     mixing
     Exchange-correlation      = VDW-DF ( 1  4  4  0 1 0)
     nstep                     =          500

     celldm(1)=  13.626204  celldm(2)=   0.000000  celldm(3)=   0.000000
     celldm(4)=   0.000000  celldm(5)=   0.000000  celldm(6)=   0.000000

     crystal axes: (cart. coord. in units of alat)
               a(1) = (   1.000000   0.000000   0.000000 )
               a(2) = (   0.000000   1.353546   0.000000 )
               a(3) = (   0.000000   0.000000   1.398783 )

     reciprocal axes: (cart. coord. in units 2 pi/alat)
               b(1) = (  1.000000  0.000000  0.000000 )
               b(2) = (  0.000000  0.738800  0.000000 )
               b(3) = (  0.000000  0.000000  0.714907 )

     PseudoPot. # 1 for V  read from file:
     /home/mpicuntureo/pseudos/V.pbesol-spnl-kjpaw_psl.1.0.0.UPF
     MD5 check sum: d709b3179d4cab0f72010db8785d50db
     Pseudo is Projector augmented-wave + core cor, Zval = 13.0
     Generated using "atomic" code by A. Dal Corso v.6.3
     Shape of augmentation charge: PSQ
     Using radial grid of 1181 points,  6 beta functions with:
                l(1) =   0
                l(2) =   0
                l(3) =   1
                l(4) =   1
                l(5) =   2
                l(6) =   2
     Q(r) pseudized with 0 coefficients

     PseudoPot. # 2 for O  read from file:
     /home/mpicuntureo/pseudos/O.pbesol-n-kjpaw_psl.1.0.0.UPF
     MD5 check sum: cb766521a97cf798d01896eaf7ac9a0a
     Pseudo is Projector augmented-wave + core cor, Zval =  6.0
     Generated using "atomic" code by A. Dal Corso v.6.3
     Shape of augmentation charge: PSQ
     Using radial grid of 1095 points,  4 beta functions with:
                l(1) =   0
                l(2) =   0
                l(3) =   1
                l(4) =   1
     Q(r) pseudized with 0 coefficients

     PseudoPot. # 3 for Li read from file:
     /home/mpicuntureo/pseudos/Li.pbesol-sl-kjpaw_psl.1.0.0.UPF
     MD5 check sum: eef8ea5bb9be16d4f57185b44daa939b
     Pseudo is Projector augmented-wave, Zval =  3.0
     Generated using "atomic" code by A. Dal Corso v.6.3
     Shape of augmentation charge: PSQ
     Using radial grid of 1017 points,  4 beta functions with:
                l(1) =   0
                l(2) =   0
                l(3) =   1
                l(4) =   1
     Q(r) pseudized with 0 coefficients

     vdW kernel table read from file vdW_kernel_table
     MD5 check sum: 8c4337f4b28e1601c069d7ef7b6561bc

     atomic species   valence    mass     pseudopotential
        V             13.00    50.94150     V ( 1.00)
        O              6.00    15.99940     O ( 1.00)
        Li             3.00     6.94100     Li( 1.00)

     No symmetry found

   Cartesian axes

     site n.     atom                  positions (alat units)
         1           V   tau(   1) = (   0.1250000   1.1799066  -0.0230308  )
         2           V   tau(   2) = (   0.3750000   0.1736394   1.4218137  )
         3           V   tau(   3) = (   0.3750000   0.8504123   0.6763606  )
         4           V   tau(   4) = (   0.1250000   0.5031336   0.7224223  )
         5           V   tau(   5) = (   0.1250000   0.7628632   1.2451682  )
         6           V   tau(   6) = (   0.3750000   0.5906827   0.1536147  )
         7           V   tau(   7) = (   0.3750000   1.2674557   0.5457767  )
         8           V   tau(   8) = (   0.1250000   0.0860903   0.8530062  )
         9           O   tau(   9) = (   0.1250000   1.0044151   1.1936654  )
        10           O   tau(  10) = (   0.3750000   0.3491309   0.2051175  )
        11           O   tau(  11) = (   0.3750000   1.0259038   0.4942739  )
        12           O   tau(  12) = (   0.1250000   0.3276421   0.9045090  )
        13           O   tau(  13) = (   0.1250000   1.3360801   1.0514365  )
        14           O   tau(  14) = (   0.3750000   0.0174659   0.3473464  )
        15           O   tau(  15) = (   0.3750000   0.6942389   0.3520450  )
        16           O   tau(  16) = (   0.1250000   0.6593071   1.0467378  )
        17           O   tau(  17) = (   0.1250000   1.0545013   0.1621290  )
        18           O   tau(  18) = (   0.3750000   0.2990447   1.2366539  )
        19           O   tau(  19) = (   0.3750000   0.9758176   0.8615204  )
        20           O   tau(  20) = (   0.1250000   0.3777283   0.5372625  )
        21           O   tau(  21) = (   0.1250000   0.0996943   0.0523127  )
        22           O   tau(  22) = (   0.3750000   1.2538517   1.3464702  )
        23           O   tau(  23) = (   0.3750000   0.5770787   0.7517041  )
        24           O   tau(  24) = (   0.1250000   0.7764672   0.6470788  )
        25           O   tau(  25) = (   0.1250000   1.2695330   0.6308963  )
        26           O   tau(  26) = (   0.3750000   0.0840130   0.7678866  )
        27           O   tau(  27) = (   0.3750000   0.7607859   1.3302877  )
        28           O   tau(  28) = (   0.1250000   0.5927600   0.0684952  )
        29           V   tau(  29) = (   0.6250000   1.1799066  -0.0230308  )
        30           V   tau(  30) = (   0.8750000   0.1736394   1.4218137  )
        31           V   tau(  31) = (   0.8750000   0.8504123   0.6763606  )
        32           V   tau(  32) = (   0.6250000   0.5031336   0.7224223  )
        33           V   tau(  33) = (   0.6250000   0.7628632   1.2451682  )
        34           V   tau(  34) = (   0.8750000   0.5906827   0.1536147  )
        35           V   tau(  35) = (   0.8750000   1.2674557   0.5457767  )
        36           V   tau(  36) = (   0.6250000   0.0860903   0.8530062  )
        37           O   tau(  37) = (   0.6250000   1.0044151   1.1936654  )
        38           O   tau(  38) = (   0.8750000   0.3491309   0.2051175  )
        39           O   tau(  39) = (   0.8750000   1.0259038   0.4942739  )
        40           O   tau(  40) = (   0.6250000   0.3276421   0.9045090  )
        41           O   tau(  41) = (   0.6250000   1.3360801   1.0514365  )
        42           O   tau(  42) = (   0.8750000   0.0174659   0.3473464  )
        43           O   tau(  43) = (   0.8750000   0.6942389   0.3520450  )
        44           O   tau(  44) = (   0.6250000   0.6593071   1.0467378  )
        45           O   tau(  45) = (   0.6250000   1.0545013   0.1621290  )
        46           O   tau(  46) = (   0.8750000   0.2990447   1.2366539  )
        47           O   tau(  47) = (   0.8750000   0.9758176   0.8615204  )
        48           O   tau(  48) = (   0.6250000   0.3777283   0.5372625  )
        49           O   tau(  49) = (   0.6250000   0.0996943   0.0523127  )
        50           O   tau(  50) = (   0.8750000   1.2538517   1.3464702  )
        51           O   tau(  51) = (   0.8750000   0.5770787   0.7517041  )
        52           O   tau(  52) = (   0.6250000   0.7764672   0.6470788  )
        53           O   tau(  53) = (   0.6250000   1.2695330   0.6308963  )
        54           O   tau(  54) = (   0.8750000   0.0840130   0.7678866  )
        55           O   tau(  55) = (   0.8750000   0.7607859   1.3302877  )
        56           O   tau(  56) = (   0.6250000   0.5927600   0.0684952  )
        57           Li  tau(  57) = (   0.1249268   0.2135622   0.3253326  )

     number of k points=     8  gaussian smearing, width (Ry)=  0.1000
                       cart. coord. in units 2pi/alat
        k(    1) = (   0.0000000   0.0000000   0.0000000), wk =   0.2500000
        k(    2) = (   0.0000000   0.0000000  -0.3574536), wk =   0.2500000
        k(    3) = (   0.0000000  -0.3694001   0.0000000), wk =   0.2500000
        k(    4) = (   0.0000000  -0.3694001  -0.3574536), wk =   0.2500000
        k(    5) = (  -0.5000000   0.0000000   0.0000000), wk =   0.2500000
        k(    6) = (  -0.5000000   0.0000000  -0.3574536), wk =   0.2500000
        k(    7) = (  -0.5000000  -0.3694001   0.0000000), wk =   0.2500000
        k(    8) = (  -0.5000000  -0.3694001  -0.3574536), wk =   0.2500000

     Check: negative core charge=   -0.000007

     Initial potential from superposition of free atoms

     starting charge  450.98163, renormalised to  451.00000

     %%%%%%%%%%%%%%%%%%%%%%%%%%%%%%%%%%%%%%%%%%%%%%%%%%%%%%%%%%%%%%%%%%%%%%%%
     %                                                                      %
     % You are using vdW-DF, which was implemented by the Thonhauser group. %
     % Please cite the following two papers that made this development      %
     % possible and the two reviews that describe the various versions:     %
     %                                                                      %
     %   T. Thonhauser et al., PRL 115, 136402 (2015).                      %
     %   T. Thonhauser et al., PRB 76, 125112 (2007).                       %
     %   K. Berland et al., Rep. Prog. Phys. 78, 066501 (2015).             %
     %   D.C. Langreth et al., J. Phys.: Condens. Matter 21, 084203 (2009). %
     %                                                                      %
     %                                                                      %
     % If you are calculating the stress with vdW-DF, please also cite:     %
     %                                                                      %
     %   R. Sabatini et al., J. Phys.: Condens. Matter 24, 424209 (2012).   %
     %                                                                      %
     %%%%%%%%%%%%%%%%%%%%%%%%%%%%%%%%%%%%%%%%%%%%%%%%%%%%%%%%%%%%%%%%%%%%%%%%

     Starting wfcs are  325 randomized atomic wfcs
     Checking if some PAW data can be deallocated...

     Self-consistent Calculation

[...]
V        4.506652501   3.627659925   5.211434695
V        4.506640094   5.501208116   8.977503974
V        6.305143244   4.273028618   1.104609402
V        6.302757520   9.125003042   3.951356336
V        4.506644409   0.621173926   6.152869380
O        4.506669332   7.242851076   8.607203030
O        6.318693470   2.508927655   1.486451169
O        6.309533730   7.400865087   3.563717842
O        4.506669959   2.362643576   6.522106733
O        4.506669366   9.633859298   7.581446977
O        6.317407730   0.137101052   2.493754798
O        6.310067300   5.005096154   2.537354320
O        4.506669265   4.753630175   7.547365315
O        4.506666521   7.603343414   1.169400380
O        6.309611029   2.155593566   8.919363222
O        6.309451162   7.036833678   6.211895497
O        4.506666865   2.722008451   3.872525319
O        4.506675692   0.719469036   0.377932288
O        6.310868952   9.043867679   9.709638951
O        6.312969209   4.161009291   5.420041861
O        4.506674399   5.597603297   4.665828907
O        4.506677617   9.153958414   4.548983933
O        6.310495782   0.605252331   5.533306203
O        6.309728592   5.485279937   9.594426398
O        4.506676537   4.272612024   0.494007871
Li       0.900806777   1.541049214   2.348604369

     Writing output data file liv2o5_gamma.save/
     NEW-OLD atomic charge density approx. for the potential

[...]

     energy   old            =   -5161.2668996833 Ry
     energy   new            =   -5161.2740744929 Ry

     CASE: energy  _new < energy  _old

[...]

     Threshold (ethr) on eigenvalues was too large:
     Diagonalizing with lowered threshold

     Davidson diagonalization with overlap
     ethr =  7.57E-08,  avg # of iterations =  6.0

[...]

     number of scf cycles    =  19
     number of bfgs steps    =  18

     energy   old            =   -5161.2881268237 Ry
     energy   new            =   -5161.2882423889 Ry

     CASE: energy  _new < energy  _old

     new trust radius        =       0.0107420241 bohr
     new conv_thr            =       0.0000000100 Ry

ATOMIC_POSITIONS (angstrom)
V        0.901015018   8.522091957  -0.200003374
V        2.726671076   1.266007871  10.143911176
V        2.706919681   6.126367179   4.861680979
V        0.901293047   3.619647152   5.288618802
V        0.900983441   5.517667628   8.967815293
V        2.707357671   4.262245412   1.079039832
V        2.683216431   9.102596511   4.004469322
V        0.901193079   0.599687666   6.215195265
O        0.901257009   7.251319174   8.580389028
O        2.582721986   2.495015154   1.419555054
O        2.703432888   7.386168779   3.539375015
O        0.901393303   2.355324831   6.579012972
O        0.901172791   9.636013408   7.656693928
O        2.517096308   0.179661721   2.619072997
O        2.703218657   4.975109347   2.524613062
O        0.901038559   4.762752170   7.536349954
O        0.900958675   7.621481644   1.137087179
O        2.745366519   2.186901989   8.826614120
O        2.725943962   7.059237354   6.179605113
O        0.901260203   2.676676891   3.950069024
O        0.901316758   0.740430911   0.341867757
O        2.710677212   9.065597315   9.693078158
O        2.701809738   4.160973559   5.438057263
O        0.901538919   5.584259562   4.680608824
O        0.901397484   9.046522066   4.694762343
O        2.692860807   0.593089919   5.574059190
O        2.710835001   5.508654598   9.601876919
O        0.901318402   4.306019033   0.465523745
V        4.506362591   8.508080403  -0.178990627
V        6.286929612   1.265957612  10.143825921
V        6.307075491   6.126331260   4.861671389
V        4.506594240   3.620306979   5.207802637
V        4.506362656   5.494607570   8.966695455
V        6.306263154   4.262229869   1.079085133
V        6.330419192   9.102588755   4.004484138
V        4.506539578   0.617563243   6.162577605
O        4.506483529   7.240578541   8.603949125
O        6.430477335   2.494990118   1.419519843
O        6.310065163   7.386175972   3.539379253
O        4.506727374   2.357583596   6.520789157
O        4.506476227   9.632101634   7.595396631
O        6.496522860   0.179658866   2.619084363
O        6.310632322   4.975022049   2.524698681
O        4.506383754   4.752045132   7.534604325
O        4.506408043   7.625168233   1.168968135
O        6.268436044   2.186784132   8.826484741
O        6.288149123   7.059176419   6.179622331
O        4.506507561   2.717511890   3.869226106
O        4.506688307   0.749631654   0.385856088
O        6.302295246   9.065555928   9.692969273
O        6.311602806   4.160949584   5.438016101
O        4.506871198   5.579128448   4.644330119
O        4.506741326   9.168982950   4.543094695
O        6.320397773   0.593069503   5.574095056
O        6.302149210   5.508671677   9.601879129
O        4.506679990   4.217184646   0.467538638
Li       0.901243895   1.564264712   2.363002711

     Writing output data file liv2o5_gamma.save/
     NEW-OLD atomic charge density approx. for the potential

     Check: negative core charge=   -0.000007

[...]

     Self-consistent Calculation

[...]

     Threshold (ethr) on eigenvalues was too large:
     Diagonalizing with lowered threshold

     Davidson diagonalization with overlap
     ethr =  2.74E-08,  avg # of iterations =  2.5

[...]

     total energy              =   -5161.28832205 Ry
     Harris-Foulkes estimate   =   -5161.28832205 Ry
     estimated scf accuracy    <       0.00000004 Ry

     iteration # 13     ecut=    40.00 Ry     beta= 0.40
     Davidson diagonalization with overlap
     ethr =  8.51E-12,  avg # of iterations =  4.8

[...]

     End of self-consistent calculation

[...]

          k = 0.0000-0.3694-0.3575 ( 20464 PWs)   bands (ev):

[...]

          k =-0.5000-0.3694-0.3575 ( 20448 PWs)   bands (ev):

   -59.7041 -59.6261 -59.6258 -59.5821 -59.5819 -59.5728 -59.5646 -59.5643
   -59.5571 -59.5510 -59.5451 -59.5407 -59.5401 -59.5398 -59.5362 -59.5324
   -38.9527 -33.6721 -33.6202 -33.6196 -33.5890 -33.5871 -33.5860 -33.5636
   -33.5630 -33.5504 -33.5482 -33.5427 -33.5236 -33.5191 -33.5157 -33.5100
   -33.4981 -33.4946 -33.4639 -33.4564 -33.4534 -33.4284 -33.4266 -33.4264
   -33.4188 -33.4153 -33.4115 -33.3861 -33.3765 -33.3747 -33.3664 -33.3614
   -33.3534 -33.3469 -33.3426 -33.3361 -33.3287 -33.3283 -33.3207 -33.3167
   -33.3146 -33.3098 -33.3092 -33.3014 -33.3011 -33.2986 -33.2986 -33.2887
   -33.2873 -12.8724 -12.8663 -12.8400 -12.8278 -12.8029 -12.7544 -12.7080
   -12.6974 -12.0982 -12.0784 -12.0233 -12.0222 -12.0151 -11.9928 -11.9817
   -11.9803 -11.9697 -11.9640 -11.9593 -11.9531 -11.9483 -11.9390 -11.9025
   -11.8830 -11.6118 -11.5461 -11.4998 -11.4620 -11.4175 -11.4089 -11.4062
   -11.3975 -11.3784 -11.3533 -11.3497 -11.3154 -11.2997 -11.2891 -11.2839
   -11.2752  -0.3738  -0.3638  -0.3474  -0.3230  -0.2879  -0.2864  -0.2703
    -0.2515   0.3006   0.3919   0.4321   0.4433   0.4583   0.4926   0.5051
     0.5283   0.5315   0.5840   0.5878   0.6195   0.6359   0.6532   0.6625
     0.7049   0.7626   0.8053   0.8480   0.8782   0.9244   1.0016   1.0163
     1.0291   1.1088   1.1220   1.1601   1.2055   1.2183   1.2240   1.2546
     1.2788   1.5167   1.5893   1.6275   1.6283   1.6438   1.6534   1.6942
     1.6994   1.7394   1.9039   1.9150   1.9577   2.0854   2.1259   2.1324
     2.1635   2.1773   2.2182   2.2221   2.2492   2.2974   2.3105   2.3481
     2.3656   2.4356   2.4806   2.4894   2.5784   2.5843   2.6056   2.6243
     2.6358   2.6451   2.6553   2.6741   2.6803   2.6813   2.7203   2.7416
     2.7445   2.9032   2.9192   2.9496   2.9663   3.0036   3.0224   3.0240
     3.0282   3.1617   3.2345   3.2559   3.2873   3.2971   3.3063   3.3175
     3.3218   3.4720   3.5641   3.6276   3.6278   3.6603   3.6675   3.6779
     3.6779   3.7439   3.7678   3.8556   3.8885   3.9073   3.9403   3.9553
     3.9568   4.0010   4.0580   4.0686   4.0838   4.1489   4.1491   4.1916
     4.2100   6.6747   6.6865   6.6885   6.7034   6.7127   6.7216   6.7292
     6.7299   7.3289   7.5355   7.5641   7.5724   7.5872   7.6100   7.6127
     7.6176   7.7210   7.7380   7.7651   7.8442   7.8678   7.8702   7.8847
     7.9079   7.9599   7.9722   8.0486   8.0532   8.0751   8.0859   8.0993
     8.1136   8.1696   8.1700   8.2097   8.2176   8.2590   8.3121   8.3335
     8.3570   8.3985   8.3992   8.4378   8.4770   8.6223   8.6664

     the Fermi energy is     5.6299 ev

!    total energy              =   -5161.28832205 Ry
     Harris-Foulkes estimate   =   -5161.28832205 Ry
     estimated scf accuracy    <          7.9E-09 Ry

     total all-electron energy =    -36469.848063 Ry

     The total energy is the sum of the following terms:

     one-electron contribution =   -2179.04052305 Ry
     hartree contribution      =    1273.99514657 Ry
     xc contribution           =    -639.15417163 Ry
     ewald contribution        =   -2078.27599381 Ry
     one-center paw contrib.   =   -1538.13992344 Ry
     smearing contrib. (-TS)   =      -0.67285669 Ry

     convergence has been achieved in  13 iterations

     negative rho (up, down):  1.480E-03 0.000E+00

     Forces acting on atoms (cartesian axes, Ry/au):

     atom    1 type  1   force =     0.00000400   -0.00036380    0.00032708
     atom    2 type  1   force =    -0.00044381   -0.00016717   -0.00013860
     atom    3 type  1   force =    -0.00011194   -0.00029220   -0.00007034
     atom    4 type  1   force =     0.00000374    0.00040104   -0.00023137
     atom    5 type  1   force =    -0.00000209   -0.00022708   -0.00061384
     atom    6 type  1   force =    -0.00031688   -0.00001238    0.00109994
     atom    7 type  1   force =    -0.00033315   -0.00040519    0.00034371
     atom    8 type  1   force =     0.00000213    0.00034499    0.00045754
     atom    9 type  2   force =    -0.00000659   -0.00011585   -0.00024739
     atom   10 type  2   force =     0.00068645    0.00021958    0.00030159
     atom   11 type  2   force =     0.00006271   -0.00021631    0.00006216
     atom   12 type  2   force =    -0.00000373    0.00040743   -0.00003400
     atom   13 type  2   force =     0.00000129    0.00028598    0.00035817
     atom   14 type  2   force =    -0.00039585    0.00127954   -0.00045225
     atom   15 type  2   force =    -0.00013450    0.00065675    0.00014069
     atom   16 type  2   force =     0.00000248   -0.00079282    0.00031425
     atom   17 type  2   force =     0.00000286   -0.00083191    0.00002730
     atom   18 type  2   force =     0.00028790    0.00012893    0.00036236
     atom   19 type  2   force =     0.00036005   -0.00049925   -0.00016720
     atom   20 type  2   force =     0.00000163   -0.00014366   -0.00147712
     atom   21 type  2   force =    -0.00000319    0.00083187   -0.00021275
     atom   22 type  2   force =    -0.00018104    0.00072566   -0.00073175
     atom   23 type  2   force =     0.00038538    0.00006404   -0.00016729
     atom   24 type  2   force =     0.00000056    0.00011553   -0.00001378
     atom   25 type  2   force =     0.00000051    0.00030489    0.00101826
     atom   26 type  2   force =     0.00000831   -0.00123664   -0.00042440
     atom   27 type  2   force =     0.00012829    0.00003314   -0.00128347
     atom   28 type  2   force =     0.00000061   -0.00095951   -0.00048462
     atom   29 type  1   force =     0.00000605   -0.00035829   -0.00016189
     atom   30 type  1   force =     0.00042931   -0.00016263   -0.00013458
     atom   31 type  1   force =     0.00010583   -0.00029335   -0.00006751
     atom   32 type  1   force =     0.00000329    0.00036103   -0.00020521
     atom   33 type  1   force =     0.00000096   -0.00052101    0.00029497
     atom   34 type  1   force =     0.00031564   -0.00001170    0.00109536
     atom   35 type  1   force =     0.00033346   -0.00040825    0.00034455
     atom   36 type  1   force =     0.00000372   -0.00012760    0.00040781
     atom   37 type  2   force =    -0.00000275    0.00080626    0.00032025
     atom   38 type  2   force =    -0.00067832    0.00021980    0.00029978
     atom   39 type  2   force =    -0.00005192   -0.00021938    0.00006248
     atom   40 type  2   force =    -0.00000344   -0.00030001    0.00014718
     atom   41 type  2   force =     0.00000338   -0.00001045    0.00046315
     atom   42 type  2   force =     0.00039960    0.00127954   -0.00045049
     atom   43 type  2   force =     0.00012641    0.00066180    0.00013825
     atom   44 type  2   force =     0.00000504    0.00137462    0.00107434
     atom   45 type  2   force =    -0.00000422   -0.00065128    0.00052021
     atom   46 type  2   force =    -0.00028902    0.00013684    0.00036675
     atom   47 type  2   force =    -0.00035732   -0.00050384   -0.00016920
     atom   48 type  2   force =     0.00000052   -0.00097973   -0.00063942
     atom   49 type  2   force =    -0.00000360    0.00132616    0.00134164
     atom   50 type  2   force =     0.00018034    0.00072744   -0.00072748
     atom   51 type  2   force =    -0.00038462    0.00006278   -0.00016795
     atom   52 type  2   force =    -0.00000289   -0.00071245    0.00010439
     atom   53 type  2   force =    -0.00000058    0.00006652    0.00008709
     atom   54 type  2   force =    -0.00000735   -0.00123761   -0.00042637
     atom   55 type  2   force =    -0.00013249    0.00003637   -0.00128286
     atom   56 type  2   force =     0.00000107   -0.00010529   -0.00061633
     atom   57 type  3   force =    -0.00000220    0.00000810   -0.00008178

     Total force =     0.006386     Total SCF correction =     0.000291

     bfgs converged in  20 scf cycles and  19 bfgs steps
     (criteria: energy <  1.0E-04 Ry, force <  1.0E-02 Ry/Bohr)

     End of BFGS Geometry Optimization

     Final energy   =   -5161.2883220480 Ry
Begin final coordinates

ATOMIC_POSITIONS (angstrom)
V        0.901015018   8.522091957  -0.200003374
V        2.726671076   1.266007871  10.143911176
V        2.706919681   6.126367179   4.861680979
V        0.901293047   3.619647152   5.288618802
V        0.900983441   5.517667628   8.967815293
V        2.707357671   4.262245412   1.079039832
V        2.683216431   9.102596511   4.004469322
V        0.901193079   0.599687666   6.215195265
O        0.901257009   7.251319174   8.580389028
O        2.582721986   2.495015154   1.419555054
O        2.703432888   7.386168779   3.539375015
O        0.901393303   2.355324831   6.579012972
O        0.901172791   9.636013408   7.656693928
O        2.517096308   0.179661721   2.619072997
O        2.703218657   4.975109347   2.524613062
O        0.901038559   4.762752170   7.536349954
O        0.900958675   7.621481644   1.137087179
O        2.745366519   2.186901989   8.826614120
O        2.725943962   7.059237354   6.179605113
O        0.901260203   2.676676891   3.950069024
O        0.901316758   0.740430911   0.341867757
O        2.710677212   9.065597315   9.693078158
O        2.701809738   4.160973559   5.438057263
O        0.901538919   5.584259562   4.680608824
O        0.901397484   9.046522066   4.694762343
O        2.692860807   0.593089919   5.574059190
O        2.710835001   5.508654598   9.601876919
O        0.901318402   4.306019033   0.465523745
V        4.506362591   8.508080403  -0.178990627
V        6.286929612   1.265957612  10.143825921
V        6.307075491   6.126331260   4.861671389
V        4.506594240   3.620306979   5.207802637
V        4.506362656   5.494607570   8.966695455
V        6.306263154   4.262229869   1.079085133
V        6.330419192   9.102588755   4.004484138
V        4.506539578   0.617563243   6.162577605
O        4.506483529   7.240578541   8.603949125
O        6.430477335   2.494990118   1.419519843
O        6.310065163   7.386175972   3.539379253
O        4.506727374   2.357583596   6.520789157
O        4.506476227   9.632101634   7.595396631
O        6.496522860   0.179658866   2.619084363
O        6.310632322   4.975022049   2.524698681
O        4.506383754   4.752045132   7.534604325
O        4.506408043   7.625168233   1.168968135
O        6.268436044   2.186784132   8.826484741
O        6.288149123   7.059176419   6.179622331
O        4.506507561   2.717511890   3.869226106
O        4.506688307   0.749631654   0.385856088
O        6.302295246   9.065555928   9.692969273
O        6.311602806   4.160949584   5.438016101
O        4.506871198   5.579128448   4.644330119
O        4.506741326   9.168982950   4.543094695
O        6.320397773   0.593069503   5.574095056
O        6.302149210   5.508671677   9.601879129
O        4.506679990   4.217184646   0.467538638
Li       0.901243895   1.564264712   2.363002711
End final coordinates

     Writing output data file liv2o5_gamma.save/

     General routines

     Parallel routines

   This run was terminated on:   1:34:52  20Oct2024

   JOB DONE.