     Program PHONON v.6.7MaX starts on 13Oct2024 at 15:40:47

     R & G space division:  proc/nbgrp/npool/nimage =      32
     Reading input from ph.in
      Title line not specified: using 'default'.

     Reading xml data from directory:

     outdir/v2o5.save/
     Message from routine read_pp_mesh:
     mesh size missing, using the one in header
     Message from routine read_pp_mesh:
     mesh size missing, using the one in header

     IMPORTANT: XC functional enforced from input :
     Exchange-correlation= PBE
                           (   1   4   3   4   0   0   0)
     Any further DFT definition will be discarded
     Please, verify this is what you really want

     Reading collected, re-writing distributed wavefunctions

     Calculation of q =    0.0000000   0.0000000   0.0000000

     default

     bravais-lattice index     =            8
     lattice parameter (alat)  =       6.7427  a.u.
     unit-cell volume          =    1306.4221 (a.u.)^3
     number of atoms/cell      =           14
     number of atomic types    =            2
     kinetic-energy cut-off    =      80.0000  Ry
     charge density cut-off    =     800.0000  Ry
     convergence threshold     =      1.0E-14
     beta                      =       0.5000
     number of iterations used =            4
     Exchange-correlation= PBE
                           (   1   4   3   4   0   0   0)

     celldm(1)=    6.74268  celldm(2)=    1.32037  celldm(3)=    3.22768
     celldm(4)=    0.00000  celldm(5)=    0.00000  celldm(6)=    0.00000

     crystal axes: (cart. coord. in units of alat)
               a(1) = (  1.0000  0.0000  0.0000 )
               a(2) = (  0.0000  1.3204  0.0000 )
               a(3) = (  0.0000  0.0000  3.2277 )

     reciprocal axes: (cart. coord. in units 2 pi/alat)
               b(1) = (  1.0000  0.0000  0.0000 )
               b(2) = (  0.0000  0.7574  0.0000 )
               b(3) = (  0.0000  0.0000  0.3098 )

     Atoms inside the unit cell:

     Cartesian axes

     site n.  atom      mass           positions (alat units)
        1     V   50.9415   tau(    1) = (    0.00000    0.51447    2.09315  )
        2     V   50.9415   tau(    2) = (    0.50000    0.80590    2.74837  )
        3     V   50.9415   tau(    3) = (    0.50000    0.80590    0.47931  )
        4     V   50.9415   tau(    4) = (    0.00000    0.51447    1.13453  )
        5     O   15.9994   tau(    5) = (    0.50000    0.64837    2.19969  )
        6     O   15.9994   tau(    6) = (    0.00000    0.67199    2.64182  )
        7     O   15.9994   tau(    7) = (    0.00000    0.67199    0.58585  )
        8     O   15.9994   tau(    8) = (    0.50000    0.64837    1.02798  )
        9     O   15.9994   tau(    9) = (    0.00000    0.07187    1.14893  )
       10     O   15.9994   tau(   10) = (    0.50000    1.24849    0.46491  )
       11     O   15.9994   tau(   11) = (    0.50000    1.24849    2.76277  )
       12     O   15.9994   tau(   12) = (    0.50000    0.66166    0.00000  )
       13     O   15.9994   tau(   13) = (    0.00000    0.65871    1.61384  )
       14     O   15.9994   tau(   14) = (    0.00000    0.07187    2.07875  )

     Computing dynamical matrix for
                    q = (   0.0000000   0.0000000   0.0000000 )

      9 Sym.Ops. (with q -> -q+G )

     G cutoff =  921.2890  (  15602 G-vectors)     FFT grid: ( 64, 81,200)
     G cutoff =  368.5156  (   3946 G-vectors)  smooth grid: ( 40, 54,128)
     number of k points=     4
                       cart. coord. in units 2pi/alat
        k(    1) = (   0.0000000   0.0000000   0.0000000), wk =   0.2222222
        k(    2) = (   0.0000000   0.2524549   0.0000000), wk =   0.4444444
        k(    3) = (   0.3333333   0.0000000   0.0000000), wk =   0.4444444
        k(    4) = (   0.3333333   0.2524549   0.0000000), wk =   0.8888889

     PseudoPot. # 1 for V  read from file:
     /home/mpicuntureo/pseudos/v.nc.upf
     MD5 check sum: 40fb93c06b4f9d8c28c5ccd071294a04
     Pseudo is Norm-conserving + core correction, Zval = 13.0
     Generated using ONCVPSP code by D. R. Hamann
     Using radial grid of 1536 points,  6 beta functions with:
                l(1) =   0
                l(2) =   0
                l(3) =   1
                l(4) =   1
                l(5) =   2
                l(6) =   2

     PseudoPot. # 2 for O  read from file:
     /home/mpicuntureo/pseudos/o.nc.upf
     MD5 check sum: 3e3f909f7470e8921608ab6b1f57bbae
     Pseudo is Norm-conserving + core correction, Zval =  6.0
     Generated using ONCVPSP code by D. R. Hamann
     Using radial grid of  936 points,  5 beta functions with:
                l(1) =   0
                l(2) =   0
                l(3) =   1
                l(4) =   1
                l(5) =   2

     Mode symmetry, D_2h (mmm)  point group:

     Electric field:
     Dielectric constant
     Born effective charges as d Force / d E
     Raman tensor

     Atomic displacements:
     There are   42 irreducible representations

     Representation     1      1 modes -  To be done

[...]

     Representation    42      1 modes -  To be done

     Alpha used in Ewald sum =   2.8000

     Electric Fields Calculation

      thresh= 1.000E-02 alpha_mix =  0.500 |ddv_scf|^2 =  2.793E-07

[...]

     End of electric fields calculation

          Dielectric constant in cartesian axis

          (       5.453156177       0.000000000       0.000000000 )
          (       0.000000000       3.276006571       0.000000000 )
          (       0.000000000       0.000000000       6.170796295 )

          Effective charges (d Force / dE) in cartesian axis

           atom      1   V
      Ex  (        6.18981        0.00000        0.00000 )
      Ey  (        0.00000        2.83284       -0.01213 )
      Ez  (       -0.00000       -0.46639        6.55682 )
           atom      2   V
      Ex  (        6.18981        0.00000       -0.00000 )
      Ey  (       -0.00000        2.83284       -0.01213 )
      Ez  (       -0.00000       -0.46639        6.55682 )
           atom      3   V
      Ex  (        6.18981        0.00000       -0.00000 )
      Ey  (        0.00000        2.83284        0.01213 )
      Ez  (        0.00000        0.46639        6.55682 )
           atom      4   V
      Ex  (        6.18981        0.00000        0.00000 )
      Ey  (       -0.00000        2.83284        0.01213 )
      Ez  (        0.00000        0.46639        6.55682 )
           atom      5   O
      Ex  (       -5.12278        0.00000       -0.00000 )
      Ey  (        0.00000       -0.68327       -0.33071 )
      Ez  (        0.00000       -0.81946       -2.66520 )
           atom      6   O
      Ex  (       -5.12278        0.00000        0.00000 )
      Ey  (       -0.00000       -0.68327       -0.33071 )
      Ez  (        0.00000       -0.81946       -2.66520 )
           atom      7   O
      Ex  (       -5.12278        0.00000        0.00000 )
      Ey  (        0.00000       -0.68327        0.33071 )
      Ez  (        0.00000        0.81946       -2.66520 )
           atom      8   O
      Ex  (       -5.12278        0.00000       -0.00000 )
      Ey  (       -0.00000       -0.68327        0.33071 )
      Ez  (        0.00000        0.81946       -2.66520 )
           atom      9   O
      Ex  (       -0.51214        0.00000       -0.00000 )
      Ey  (        0.00000       -1.84923       -0.07561 )
      Ez  (        0.00000       -0.19449       -0.45153 )
           atom     10   O
      Ex  (       -0.51214        0.00000        0.00000 )
      Ey  (        0.00000       -1.84923       -0.07561 )
      Ez  (        0.00000       -0.19449       -0.45153 )
           atom     11   O
      Ex  (       -0.51214        0.00000        0.00000 )
      Ey  (        0.00000       -1.84923        0.07561 )
      Ez  (        0.00000        0.19449       -0.45153 )
           atom     12   O
      Ex  (       -1.03646        0.00000       -0.00000 )
      Ey  (       -0.00000       -0.61095        0.00000 )
      Ez  (        0.00000        0.00000       -6.98225 )
           atom     13   O
      Ex  (       -1.03646        0.00000       -0.00000 )
      Ey  (       -0.00000       -0.61095        0.00000 )
      Ez  (        0.00000        0.00000       -6.98225 )
           atom     14   O
      Ex  (       -0.51214        0.00000        0.00000 )
      Ey  (        0.00000       -1.84923        0.07561 )
      Ez  (       -0.00000        0.19449       -0.45153 )

     Calling punch_plot_e
     Writing on file  drho

     Computing Pc [DH,Drho] |psi>

     Derivative coefficient:  0.001000    Threshold: 1.00E-12
     Non-scf  u_k: avg # of iterations = 29.7
     Non-scf Du_k: avg # of iterations = 56.1

          Dielectric constant from finite-differences

[...]

     Computing Second order response

      iter #   1   av.it.:  17.9
      thresh= 1.000E-02 alpha_mix =  0.500 |ddv_scf|^2 =  2.172E-03

[...]

      iter #  22   av.it.:  18.0
      thresh= 1.701E-08 alpha_mix =  0.500 |ddv_scf|^2 =  3.201E-15

          Raman tensor (au^-1) in cartesian axis

           atom      1
          (       0.000000000       0.479312315       0.998740411 )
          (       0.479312315       0.000000000       0.000000000 )
          (       0.998740411       0.000000000       0.000000000 )

[...]

           atom     14
          (       0.000000000      -0.147969085       0.005045214 )
          (      -0.147969085       0.000000000       0.000000000 )
          (       0.005045214       0.000000000       0.000000000 )

[...]

     Raman tensor (A^2)

     atom #    1    pol.  1
      0.000000000000E+00      0.139538648375E+02      0.290755907323E+02
      0.139538648375E+02      0.144839269179E-16      0.000000000000E+00
      0.290755907323E+02      0.000000000000E+00      0.000000000000E+00
     atom #    1    pol.  2
      0.163268836057E+02      0.000000000000E+00      0.000000000000E+00
      0.000000000000E+00      0.952760698969E+01     -0.129594699462E+01
      0.000000000000E+00     -0.129594699462E+01      0.117276001129E+02
     atom #    1    pol.  3
     -0.109512510322E+02      0.000000000000E+00      0.775614508129E-16
      0.000000000000E+00      0.183214699604E+01      0.138893208368E+01
      0.775614508129E-16      0.138893208368E+01      0.180208961125E+02
     atom #    2    pol.  1
      0.000000000000E+00     -0.139538648375E+02     -0.290755907323E+02
     -0.139538648375E+02      0.000000000000E+00     -0.237001517424E-16
     -0.290755907323E+02     -0.237001517424E-16      0.000000000000E+00
     atom #    2    pol.  2
     -0.163268836057E+02      0.000000000000E+00      0.000000000000E+00
      0.000000000000E+00     -0.952760698969E+01      0.129594699462E+01
      0.000000000000E+00      0.129594699462E+01     -0.117276001129E+02
     atom #    2    pol.  3
      0.109512510322E+02      0.000000000000E+00      0.000000000000E+00
      0.000000000000E+00     -0.183214699604E+01     -0.138893208368E+01
      0.000000000000E+00     -0.138893208368E+01     -0.180208961125E+02
     atom #    3    pol.  1
      0.000000000000E+00     -0.139538648375E+02      0.290755907323E+02
[...]
     -0.505678564291E+01      0.000000000000E+00      0.000000000000E+00
      0.000000000000E+00      0.120485953137E+01      0.182823229556E+01
      0.000000000000E+00      0.182823229556E+01      0.599630426997E+01
     atom #    5    pol.  3
     -0.107898063423E+02      0.118500758712E-16      0.387807254065E-16
      0.118500758712E-16     -0.282204127467E+00      0.442642461071E+01
      0.387807254065E-16      0.442642461071E+01     -0.364252796413E+01
     atom #    6    pol.  1
      0.000000000000E+00      0.888574968701E+01      0.188595762185E+02
      0.888574968701E+01      0.579357076718E-16      0.000000000000E+00
      0.188595762185E+02      0.000000000000E+00      0.000000000000E+00
     atom #    6    pol.  2
      0.505678564291E+01      0.000000000000E+00      0.000000000000E+00
      0.000000000000E+00     -0.120485953137E+01     -0.182823229556E+01
      0.000000000000E+00     -0.182823229556E+01     -0.599630426997E+01
     atom #    6    pol.  3
      0.107898063423E+02      0.000000000000E+00     -0.387807254065E-16
      0.000000000000E+00      0.282204127467E+00     -0.442642461071E+01
     -0.387807254065E-16     -0.442642461071E+01      0.364252796413E+01
     atom #    7    pol.  1
      0.000000000000E+00      0.888574968701E+01     -0.188595762185E+02
      0.888574968701E+01      0.000000000000E+00      0.000000000000E+00
     -0.188595762185E+02      0.000000000000E+00      0.000000000000E+00
     atom #    7    pol.  2
      0.505678564291E+01      0.000000000000E+00      0.000000000000E+00
      0.000000000000E+00     -0.120485953137E+01      0.182823229556E+01
      0.000000000000E+00      0.182823229556E+01     -0.599630426997E+01
     atom #    7    pol.  3
     -0.107898063423E+02      0.118500758712E-16     -0.387807254065E-16
      0.118500758712E-16     -0.282204127467E+00     -0.442642461071E+01
     -0.387807254065E-16     -0.442642461071E+01     -0.364252796413E+01
     atom #    8    pol.  1
      0.000000000000E+00     -0.888574968701E+01      0.188595762185E+02
     -0.888574968701E+01     -0.579357076718E-16      0.000000000000E+00
      0.188595762185E+02      0.000000000000E+00      0.000000000000E+00
     atom #    8    pol.  2
     -0.505678564291E+01      0.000000000000E+00      0.000000000000E+00
      0.000000000000E+00      0.120485953137E+01     -0.182823229556E+01
      0.000000000000E+00     -0.182823229556E+01      0.599630426997E+01
     atom #    8    pol.  3
      0.107898063423E+02      0.000000000000E+00      0.387807254065E-16
      0.000000000000E+00      0.282204127467E+00      0.442642461071E+01
      0.387807254065E-16      0.442642461071E+01      0.364252796413E+01
     atom #    9    pol.  1
      0.000000000000E+00     -0.430771449130E+01     -0.146877582476E+00
     -0.430771449130E+01      0.000000000000E+00      0.000000000000E+00
     -0.146877582476E+00      0.000000000000E+00      0.000000000000E+00
     atom #    9    pol.  2
     -0.163552948283E+02      0.000000000000E+00     -0.118500758712E-16
      0.000000000000E+00     -0.161828589789E+02     -0.150634717203E+01
     -0.118500758712E-16     -0.150634717203E+01     -0.152715121716E+02
     atom #    9    pol.  3
     -0.216099579550E+00      0.000000000000E+00      0.000000000000E+00
      0.000000000000E+00     -0.124412648986E+01     -0.360802720808E+01
      0.000000000000E+00     -0.360802720808E+01      0.307290116381E+01
     atom #   10    pol.  1
      0.000000000000E+00      0.430771449130E+01      0.146877582476E+00
      0.430771449130E+01      0.000000000000E+00      0.000000000000E+00
      0.146877582476E+00      0.000000000000E+00      0.000000000000E+00
     atom #   10    pol.  2
      0.163552948283E+02     -0.579357076718E-16      0.118500758712E-16
     -0.579357076718E-16      0.161828589789E+02      0.150634717203E+01
      0.118500758712E-16      0.150634717203E+01      0.152715121716E+02
     atom #   10    pol.  3
      0.216099579550E+00      0.000000000000E+00      0.000000000000E+00
      0.000000000000E+00      0.124412648986E+01      0.360802720808E+01
      0.000000000000E+00      0.360802720808E+01     -0.307290116381E+01
     atom #   11    pol.  1
      0.000000000000E+00      0.430771449130E+01     -0.146877582476E+00
      0.430771449130E+01      0.000000000000E+00      0.000000000000E+00
     -0.146877582476E+00      0.000000000000E+00      0.000000000000E+00
     atom #   11    pol.  2
      0.163552948283E+02      0.000000000000E+00     -0.118500758712E-16
      0.000000000000E+00      0.161828589789E+02     -0.150634717203E+01
     -0.118500758712E-16     -0.150634717203E+01      0.152715121716E+02
     atom #   11    pol.  3
     -0.216099579550E+00      0.000000000000E+00      0.000000000000E+00
      0.000000000000E+00     -0.124412648986E+01      0.360802720808E+01
      0.000000000000E+00      0.360802720808E+01      0.307290116381E+01
     atom #   12    pol.  1
      0.252508606076E-16     -0.622629542363E+00      0.000000000000E+00
     -0.622629542363E+00      0.144839269179E-16     -0.180817808093E-21
      0.000000000000E+00     -0.180817808093E-21      0.000000000000E+00
     atom #   12    pol.  2
     -0.219669732522E+01     -0.289678538359E-16      0.000000000000E+00
     -0.289678538359E-16     -0.275897172153E+01      0.000000000000E+00
      0.000000000000E+00      0.000000000000E+00     -0.459542416391E+01
     atom #   12    pol.  3
      0.000000000000E+00      0.000000000000E+00      0.000000000000E+00
      0.000000000000E+00      0.000000000000E+00     -0.155420422704E+01
      0.000000000000E+00     -0.155420422704E+01      0.000000000000E+00
     atom #   13    pol.  1
     -0.252508606076E-16      0.622629542363E+00      0.119373007176E-21
      0.622629542363E+00     -0.144839269179E-16      0.000000000000E+00
      0.119373007176E-21      0.000000000000E+00      0.000000000000E+00
     atom #   13    pol.  2
      0.219669732522E+01      0.289678538359E-16      0.000000000000E+00
      0.289678538359E-16      0.275897172153E+01      0.000000000000E+00
      0.000000000000E+00      0.000000000000E+00      0.459542416391E+01
     atom #   13    pol.  3
      0.000000000000E+00      0.361635616186E-21      0.000000000000E+00
      0.361635616186E-21      0.000000000000E+00      0.155420422704E+01
      0.000000000000E+00      0.155420422704E+01      0.733340836845E-21
     atom #   14    pol.  1
      0.000000000000E+00     -0.430771449130E+01      0.146877582476E+00
     -0.430771449130E+01      0.000000000000E+00      0.000000000000E+00
      0.146877582476E+00      0.000000000000E+00      0.000000000000E+00
     atom #   14    pol.  2
     -0.163552948283E+02      0.579357076718E-16      0.118500758712E-16
      0.579357076718E-16     -0.161828589789E+02      0.150634717203E+01
      0.118500758712E-16      0.150634717203E+01     -0.152715121716E+02
     atom #   14    pol.  3
      0.216099579550E+00      0.000000000000E+00      0.000000000000E+00
      0.000000000000E+00      0.124412648986E+01     -0.360802720808E+01
      0.000000000000E+00     -0.360802720808E+01     -0.307290116381E+01

     Representation #   1 mode #   1

     Self-consistent Calculation

[...]

     End of self-consistent calculation

     Convergence has been achieved

[...]

     Representation #  42 mode #  42

     Self-consistent Calculation

[...]

      thresh= 1.080E-08 alpha_mix =  0.500 |ddv_scf|^2 =  1.815E-15

     End of self-consistent calculation

     Convergence has been achieved

     Number of q in the star =    1
     List of q in the star:
          1   0.000000000   0.000000000   0.000000000

          Dielectric constant in cartesian axis

          (       5.454115510       0.000000000       0.000000000 )
          (       0.000000000       3.279279058       0.000000000 )
          (       0.000000000       0.000000000       6.172059244 )

          Effective charges (d Force / dE) in cartesian axis

           atom      1   V
      Ex  (        6.18981        0.00000        0.00000 )
      Ey  (        0.00000        2.83284       -0.01213 )
      Ez  (       -0.00000       -0.46639        6.55682 )
           atom      2   V
      Ex  (        6.18981        0.00000       -0.00000 )
      Ey  (       -0.00000        2.83284       -0.01213 )
      Ez  (       -0.00000       -0.46639        6.55682 )
           atom      3   V
      Ex  (        6.18981        0.00000       -0.00000 )
      Ey  (        0.00000        2.83284        0.01213 )
      Ez  (        0.00000        0.46639        6.55682 )
           atom      4   V
      Ex  (        6.18981        0.00000        0.00000 )
      Ey  (       -0.00000        2.83284        0.01213 )
      Ez  (        0.00000        0.46639        6.55682 )
           atom      5   O
      Ex  (       -5.12278        0.00000       -0.00000 )
      Ey  (        0.00000       -0.68327       -0.33071 )
      Ez  (        0.00000       -0.81946       -2.66520 )
           atom      6   O
      Ex  (       -5.12278        0.00000        0.00000 )
      Ey  (       -0.00000       -0.68327       -0.33071 )
      Ez  (        0.00000       -0.81946       -2.66520 )
           atom      7   O
      Ex  (       -5.12278        0.00000        0.00000 )
      Ey  (        0.00000       -0.68327        0.33071 )
      Ez  (        0.00000        0.81946       -2.66520 )
           atom      8   O
      Ex  (       -5.12278        0.00000       -0.00000 )
      Ey  (       -0.00000       -0.68327        0.33071 )
      Ez  (        0.00000        0.81946       -2.66520 )
           atom      9   O
      Ex  (       -0.51214        0.00000       -0.00000 )
      Ey  (        0.00000       -1.84923       -0.07561 )
      Ez  (        0.00000       -0.19449       -0.45153 )
           atom     10   O
      Ex  (       -0.51214        0.00000        0.00000 )
      Ey  (        0.00000       -1.84923       -0.07561 )
      Ez  (        0.00000       -0.19449       -0.45153 )
           atom     11   O
      Ex  (       -0.51214        0.00000        0.00000 )
      Ey  (        0.00000       -1.84923        0.07561 )
      Ez  (        0.00000        0.19449       -0.45153 )
           atom     12   O
      Ex  (       -1.03646        0.00000       -0.00000 )
      Ey  (       -0.00000       -0.61095        0.00000 )
      Ez  (        0.00000        0.00000       -6.98225 )
           atom     13   O
      Ex  (       -1.03646        0.00000       -0.00000 )
      Ey  (       -0.00000       -0.61095        0.00000 )
      Ez  (        0.00000        0.00000       -6.98225 )
           atom     14   O
      Ex  (       -0.51214        0.00000        0.00000 )
      Ey  (        0.00000       -1.84923        0.07561 )
      Ez  (       -0.00000        0.19449       -0.45153 )

     Diagonalizing the dynamical matrix

     q = (    0.000000000   0.000000000   0.000000000 )

     freq (    1) =      -0.962271 [THz] =     -32.097906 [cm-1]
     freq (    2) =      -0.629661 [THz] =     -21.003217 [cm-1]
     freq (    3) =      -0.528184 [THz] =     -17.618325 [cm-1]
     freq (    4) =       1.778363 [THz] =      59.319808 [cm-1]
     freq (    5) =       1.917619 [THz] =      63.964896 [cm-1]
     freq (    6) =       2.719806 [THz] =      90.722949 [cm-1]
     freq (    7) =       3.536085 [THz] =     117.951106 [cm-1]
     freq (    8) =       3.900557 [THz] =     130.108593 [cm-1]
     freq (    9) =       4.046474 [THz] =     134.975843 [cm-1]
     freq (   10) =       4.211102 [THz] =     140.467248 [cm-1]
     freq (   11) =       5.332814 [THz] =     177.883525 [cm-1]
     freq (   12) =       5.586211 [THz] =     186.335940 [cm-1]
     freq (   13) =       6.219908 [THz] =     207.473793 [cm-1]
     freq (   14) =       6.980827 [THz] =     232.855318 [cm-1]
     freq (   15) =       7.376302 [THz] =     246.046965 [cm-1]
     freq (   16) =       7.878478 [THz] =     262.797725 [cm-1]
     freq (   17) =       8.318307 [THz] =     277.468842 [cm-1]
     freq (   18) =       8.357093 [THz] =     278.762614 [cm-1]
     freq (   19) =       8.410563 [THz] =     280.546178 [cm-1]
     freq (   20) =       8.487862 [THz] =     283.124605 [cm-1]
     freq (   21) =       8.742735 [THz] =     291.626234 [cm-1]
     freq (   22) =       8.896224 [THz] =     296.746099 [cm-1]
     freq (   23) =      10.394778 [THz] =     346.732475 [cm-1]
     freq (   24) =      10.433637 [THz] =     348.028679 [cm-1]
     freq (   25) =      10.638140 [THz] =     354.850170 [cm-1]
     freq (   26) =      11.959145 [THz] =     398.914124 [cm-1]
     freq (   27) =      12.067350 [THz] =     402.523461 [cm-1]
     freq (   28) =      14.034409 [THz] =     468.137511 [cm-1]
     freq (   29) =      14.105887 [THz] =     470.521727 [cm-1]
     freq (   30) =      14.137550 [THz] =     471.577907 [cm-1]
     freq (   31) =      14.218008 [THz] =     474.261698 [cm-1]
     freq (   32) =      14.374299 [THz] =     479.475009 [cm-1]
     freq (   33) =      15.617316 [THz] =     520.937582 [cm-1]
     freq (   34) =      18.335602 [THz] =     611.609837 [cm-1]
     freq (   35) =      20.263228 [THz] =     675.908526 [cm-1]
     freq (   36) =      20.268464 [THz] =     676.083171 [cm-1]
     freq (   37) =      22.683851 [THz] =     756.651835 [cm-1]
     freq (   38) =      27.534739 [THz] =     918.460043 [cm-1]
     freq (   39) =      30.530060 [THz] =    1018.373192 [cm-1]
     freq (   40) =      30.697865 [THz] =    1023.970550 [cm-1]
     freq (   41) =      31.130890 [THz] =    1038.414725 [cm-1]
     freq (   42) =      31.259385 [THz] =    1042.700832 [cm-1]

     Mode symmetry, D_2h (mmm)  point group:

     freq (   1-   1) =        -32.1  [cm-1]   --> B_3u            I
     freq (   2-   2) =        -21.0  [cm-1]   --> B_1u            I
     freq (   3-   3) =        -17.6  [cm-1]   --> B_2u            I
     freq (   4-   4) =         59.3  [cm-1]   --> B_1u            I
     freq (   5-   5) =         64.0  [cm-1]   --> A_u
     freq (   6-   6) =         90.7  [cm-1]   --> A_g             R
     freq (   7-   7) =        118.0  [cm-1]   --> B_3u            I
     freq (   8-   8) =        130.1  [cm-1]   --> B_2g            R
     freq (   9-   9) =        135.0  [cm-1]   --> B_3g            R
     freq (  10-  10) =        140.5  [cm-1]   --> B_1g            R
     freq (  11-  11) =        177.9  [cm-1]   --> A_g             R
     freq (  12-  12) =        186.3  [cm-1]   --> B_2g            R
     freq (  13-  13) =        207.5  [cm-1]   --> B_2u            I
     freq (  14-  14) =        232.9  [cm-1]   --> B_1g            R
     freq (  15-  15) =        246.0  [cm-1]   --> B_1u            I
     freq (  16-  16) =        262.8  [cm-1]   --> A_u
     freq (  17-  17) =        277.5  [cm-1]   --> B_2u            I
     freq (  18-  18) =        278.8  [cm-1]   --> B_3g            R
     freq (  19-  19) =        280.5  [cm-1]   --> B_3u            I
     freq (  20-  20) =        283.1  [cm-1]   --> B_1g            R
     freq (  21-  21) =        291.6  [cm-1]   --> A_g             R
     freq (  22-  22) =        296.7  [cm-1]   --> B_2g            R
     freq (  23-  23) =        346.7  [cm-1]   --> B_1u            I
     freq (  24-  24) =        348.0  [cm-1]   --> B_2g            R
     freq (  25-  25) =        354.9  [cm-1]   --> B_3u            I
     freq (  26-  26) =        398.9  [cm-1]   --> A_g             R
     freq (  27-  27) =        402.5  [cm-1]   --> B_1u            I
     freq (  28-  28) =        468.1  [cm-1]   --> A_u
     freq (  29-  29) =        470.5  [cm-1]   --> A_g             R
     freq (  30-  30) =        471.6  [cm-1]   --> B_3u            I
     freq (  31-  31) =        474.3  [cm-1]   --> B_2u            I
     freq (  32-  32) =        479.5  [cm-1]   --> B_2g            R
     freq (  33-  33) =        520.9  [cm-1]   --> A_g             R
     freq (  34-  34) =        611.6  [cm-1]   --> B_3u            I
     freq (  35-  35) =        675.9  [cm-1]   --> B_1g            R
     freq (  36-  36) =        676.1  [cm-1]   --> B_3g            R
     freq (  37-  37) =        756.7  [cm-1]   --> B_1u            I
     freq (  38-  38) =        918.5  [cm-1]   --> B_2g            R
     freq (  39-  39) =       1018.4  [cm-1]   --> B_1u            I
     freq (  40-  40) =       1024.0  [cm-1]   --> B_3u            I
     freq (  41-  41) =       1038.4  [cm-1]   --> B_2g            R
     freq (  42-  42) =       1042.7  [cm-1]   --> A_g             R

     INITIALIZATION:

     DIELECTRIC CONSTANT AND EFFECTIVE CHARGES:

     RAMAN COEFFICIENTS, THIRD-ORDER CHI:

     DYNAMICAL MATRIX:

      General routines

   This run was terminated on:  16:42:32  13Oct2024

   JOB DONE.