     Program PWSCF v.6.4.1 starts on 13Oct2024 at  3:13: 8

     R & G space division:  proc/nbgrp/npool/nimage =      32
     Reading input from v2o5.scf.in

     Current dimensions of program PWSCF are:
     Max number of different atomic species (ntypx) = 10
     Max number of k-points (npk) =  40000
     Max angular momentum in pseudopotentials (lmaxx) =  3

     Subspace diagonalization in iterative solution of the eigenvalue problem:
     one sub-group per band group will be used

     bravais-lattice index     =            8
     lattice parameter (alat)  =       6.7427  a.u.
     unit-cell volume          =    1306.4221 (a.u.)^3
     number of atoms/cell      =           14
     number of atomic types    =            2
     number of electrons       =       112.00
     number of Kohn-Sham states=           56
     kinetic-energy cutoff     =      80.0000  Ry
     charge density cutoff     =     800.0000  Ry
     convergence threshold     =      1.0E-12
     mixing beta               =       0.7000
     number of iterations used =            8  plain     mixing
     Exchange-correlation      = PBE ( 1  4  3  4 0 0)

     celldm(1)=   6.742684  celldm(2)=   1.320368  celldm(3)=   3.227677
     celldm(4)=   0.000000  celldm(5)=   0.000000  celldm(6)=   0.000000

     crystal axes: (cart. coord. in units of alat)
               a(1) = (   1.000000   0.000000   0.000000 )
               a(2) = (   0.000000   1.320368   0.000000 )
               a(3) = (   0.000000   0.000000   3.227677 )

     reciprocal axes: (cart. coord. in units 2 pi/alat)
               b(1) = (  1.000000  0.000000  0.000000 )
               b(2) = (  0.000000  0.757365  0.000000 )
               b(3) = (  0.000000  0.000000  0.309820 )

     PseudoPot. # 1 for V  read from file:
     /home/mpicuntureo/pseudos/v.nc.upf
     MD5 check sum: 40fb93c06b4f9d8c28c5ccd071294a04
     Pseudo is Norm-conserving + core correction, Zval = 13.0
     Generated using ONCVPSP code by D. R. Hamann
     Using radial grid of 1536 points,  6 beta functions with:
                l(1) =   0
                l(2) =   0
                l(3) =   1
                l(4) =   1
                l(5) =   2
                l(6) =   2

     PseudoPot. # 2 for O  read from file:
     /home/mpicuntureo/pseudos/o.nc.upf
     MD5 check sum: 3e3f909f7470e8921608ab6b1f57bbae
     Pseudo is Norm-conserving + core correction, Zval =  6.0
     Generated using ONCVPSP code by D. R. Hamann
     Using radial grid of  936 points,  5 beta functions with:
                l(1) =   0
                l(2) =   0
                l(3) =   1
                l(4) =   1
                l(5) =   2

     atomic species   valence    mass     pseudopotential
        V             13.00    50.94150     V ( 1.00)
        O              6.00    15.99940     O ( 1.00)

      8 Sym. Ops., with inversion, found ( 4 have fractional translation)

   Cartesian axes

     site n.     atom                  positions (alat units)
         1           V   tau(   1) = (   0.0000000   0.5144702   2.0931510  )
         2           V   tau(   2) = (   0.5000000   0.8058976   2.7483651  )
         3           V   tau(   3) = (   0.5000000   0.8058976   0.4793123  )
         4           V   tau(   4) = (   0.0000000   0.5144702   1.1345264  )
         5           O   tau(   5) = (   0.5000000   0.6483746   2.1996928  )
         6           O   tau(   6) = (   0.0000000   0.6719933   2.6418233  )
         7           O   tau(   7) = (   0.0000000   0.6719933   0.5858541  )
         8           O   tau(   8) = (   0.5000000   0.6483746   1.0279846  )
         9           O   tau(   9) = (   0.0000000   0.0718731   1.1489285  )
        10           O   tau(  10) = (   0.5000000   1.2484947   0.4649102  )
        11           O   tau(  11) = (   0.5000000   1.2484947   2.7627672  )
        12           O   tau(  12) = (   0.5000000   0.6616564   0.0000000  )
        13           O   tau(  13) = (   0.0000000   0.6587114   1.6138387  )
        14           O   tau(  14) = (   0.0000000   0.0718731   2.0787489  )

     number of k points=     4
                       cart. coord. in units 2pi/alat
        k(    1) = (   0.0000000   0.0000000   0.0000000), wk =   0.2222222
        k(    2) = (   0.0000000   0.2524549   0.0000000), wk =   0.4444444
        k(    3) = (   0.3333333   0.0000000   0.0000000), wk =   0.4444444
        k(    4) = (   0.3333333   0.2524549   0.0000000), wk =   0.8888889

     Initial potential from superposition of free atoms

     starting charge  111.99579, renormalised to  112.00000
     Starting wfcs are   80 randomized atomic wfcs

     Self-consistent Calculation

     iteration #  1     ecut=    80.00 Ry     beta= 0.70
     Davidson diagonalization with overlap
     ethr =  1.00E-02,  avg # of iterations =  2.0

     total energy              =    -917.30025681 Ry
     Harris-Foulkes estimate   =    -923.49484385 Ry
     estimated scf accuracy    <       7.77367858 Ry

[...]

     total energy              =    -922.00135372 Ry
     Harris-Foulkes estimate   =    -922.00135372 Ry
     estimated scf accuracy    <          5.5E-12 Ry

     iteration # 31     ecut=    80.00 Ry     beta= 0.70
     Davidson diagonalization with overlap
     ethr =  1.00E-13,  avg # of iterations =  1.0

     End of self-consistent calculation

          k = 0.0000 0.0000 0.0000 ( 15803 PWs)   bands (ev):

   -60.6345 -60.6325 -60.6233 -60.6213 -34.6745 -34.6720 -34.6638 -34.6584
   -34.5713 -34.5184 -34.4925 -34.4683 -34.4659 -34.4418 -34.4323 -34.4298
   -14.1584 -14.0396 -13.0665 -12.9653 -12.8890 -12.8295 -12.4347 -12.4246
   -12.2834 -12.2807  -1.0840  -1.0725  -0.9405  -0.8763  -0.7002  -0.3149
     0.3157   0.4580   0.6053   0.6949   0.9087   0.9651   1.1015   1.1365
     1.2398   1.2480   1.4244   1.5262   1.5721   1.6435   1.7510   1.7557
     2.0182   2.1746   2.3846   2.4125   2.5065   2.6741   2.7194   2.7898

[...]

          k = 0.3333 0.2525 0.0000 ( 15756 PWs)   bands (ev):

   -60.6301 -60.6282 -60.6246 -60.6226 -34.6693 -34.6669 -34.6633 -34.6592
   -34.5683 -34.5428 -34.5284 -34.5202 -34.4718 -34.4665 -34.4509 -34.4401
   -13.5599 -13.4381 -12.9562 -12.8497 -12.8184 -12.7752 -12.3779 -12.3569
   -12.2956 -12.2702  -1.5731  -1.4985  -0.7729  -0.7431  -0.6810  -0.3641
    -0.3119  -0.1991  -0.0742   0.1273   0.2198   0.2897   0.7196   0.7643
     0.7742   0.8959   1.0223   1.1090   1.1807   1.5805   1.8539   2.0462
     2.2492   2.3233   2.6330   2.8670   2.8744   3.0281   3.0811   3.1133

     highest occupied level (ev):     3.1133

!    total energy              =    -922.00135372 Ry
     Harris-Foulkes estimate   =    -922.00135372 Ry
     estimated scf accuracy    <          8.1E-13 Ry

     The total energy is the sum of the following terms:

     one-electron contribution =    -634.09260565 Ry
     hartree contribution      =     353.66244571 Ry
     xc contribution           =    -174.00813147 Ry
     ewald contribution        =    -467.56306231 Ry

     convergence has been achieved in  31 iterations

     Writing output data file v2o5.save/

     General routines

     Parallel routines

   This run was terminated on:   3:13:29  13Oct2024

   JOB DONE.