     Program PWSCF v.6.5 starts on 14Nov2021 at 13:50:42

     R & G space division:  proc/nbgrp/npool/nimage =      20
     Reading input from liv16o40_fi.rlx.in
Warning: card &CELL ignored
Warning: card     CELL_DYNAMICS  = "BFGS" ignored
Warning: card / ignored

     Current dimensions of program PWSCF are:
     Max number of different atomic species (ntypx) = 10
     Max number of k-points (npk) =  40000
     Max angular momentum in pseudopotentials (lmaxx) =  3
               file V.pbe-spnl-kjpaw_psl.1.0.0.UPF: wavefunction(s)  3P 3D renormalized
               file O.pbe-n-kjpaw_psl.1.0.0.UPF: wavefunction(s)  2S 2P renormalized

     Subspace diagonalization in iterative solution of the eigenvalue problem:
     a serial algorithm will be used

     bravais-lattice index     =            0
     lattice parameter (alat)  =      13.4999  a.u.
     unit-cell volume          =    5116.4109 (a.u.)^3
     number of atoms/cell      =           57
     number of atomic types    =            3
     number of electrons       =       451.00
     number of Kohn-Sham states=          271
     kinetic-energy cutoff     =      65.0000  Ry
     charge density cutoff     =     650.0000  Ry
     convergence threshold     =      1.0E-10
     mixing beta               =       0.2000
     number of iterations used =            8  local-TF  mixing
     Exchange-correlation= SLA PW PBX PBC
                           (   1   4   3   4   0   0   0)
     nstep                     =          550

     celldm(1)=  13.499904  celldm(2)=   0.000000  celldm(3)=   0.000000
     celldm(4)=   0.000000  celldm(5)=   0.000000  celldm(6)=   0.000000

     crystal axes: (cart. coord. in units of alat)
               a(1) = (   1.000000   0.000000   0.000000 )
               a(2) = (   0.000000   1.283680   0.000000 )
               a(3) = (   0.000000   0.000000   1.620006 )

     reciprocal axes: (cart. coord. in units 2 pi/alat)
               b(1) = (  1.000000  0.000000  0.000000 )
               b(2) = (  0.000000  0.779010  0.000000 )
               b(3) = (  0.000000  0.000000  0.617282 )

     PseudoPot. # 1 for V  read from file:
     ~/pseudos/V.pbe-spnl-kjpaw_psl.1.0.0.UPF
     MD5 check sum: Not computed, couldn't open file
     Pseudo is Projector augmented-wave + core cor, Zval = 13.0
     Generated using "atomic" code by A. Dal Corso v.6.3
     Shape of augmentation charge: PSQ
     Using radial grid of 1181 points,  6 beta functions with:
                l(1) =   0
                l(2) =   0
                l(3) =   1
                l(4) =   1
                l(5) =   2
                l(6) =   2
     Q(r) pseudized with 0 coefficients

     PseudoPot. # 2 for O  read from file:
     ~/pseudos/O.pbe-n-kjpaw_psl.1.0.0.UPF
     MD5 check sum: Not computed, couldn't open file
     Pseudo is Projector augmented-wave + core cor, Zval =  6.0
     Generated using "atomic" code by A. Dal Corso v.6.3
     Shape of augmentation charge: PSQ
     Using radial grid of 1095 points,  4 beta functions with:
                l(1) =   0
                l(2) =   0
                l(3) =   1
                l(4) =   1
     Q(r) pseudized with 0 coefficients

     PseudoPot. # 3 for Li read from file:
     ~/pseudos/Li.pbe-s-kjpaw_psl.1.0.0.UPF
     MD5 check sum: Not computed, couldn't open file
     Pseudo is Projector augmented-wave, Zval =  3.0
     Generated using "atomic" code by A. Dal Corso v.6.3
     Shape of augmentation charge: PSQ
     Using radial grid of 1017 points,  4 beta functions with:
                l(1) =   0
                l(2) =   0
                l(3) =   1
                l(4) =   1
     Q(r) pseudized with 0 coefficients

     atomic species   valence    mass     pseudopotential
        V             13.00    50.94150     V ( 1.00)
        O              6.00    15.99940     O ( 1.00)
        Li             3.00     6.94100     Li( 1.00)

     No symmetry found

   Cartesian axes

     site n.     atom                  positions (alat units)
         1           V   tau(   1) = (   0.0000000   0.2492828   1.0503652  )
         2           V   tau(   2) = (   0.2500000   0.3925573   1.3796436  )
         3           V   tau(   3) = (   0.2500000   0.3925573   0.2403623  )
         4           V   tau(   4) = (   0.0000000   0.2492828   0.5696407  )
         5           O   tau(   5) = (   0.2500000   0.3157779   1.1039633  )
         6           O   tau(   6) = (   0.0000000   0.3260622   1.3260456  )
         7           O   tau(   7) = (   0.0000000   0.3260622   0.2939603  )
         8           O   tau(   8) = (   0.2500000   0.3157779   0.5160426  )
         9           O   tau(   9) = (   0.0000000   0.0267527   0.5763714  )
        10           O   tau(  10) = (   0.2500000   0.6150874   0.2336316  )
        11           O   tau(  11) = (   0.2500000   0.6150874   1.3863743  )
        12           O   tau(  12) = (   0.2500000   0.3221871   0.0000000  )
        13           O   tau(  13) = (   0.0000000   0.3196530   0.8100029  )
        14           O   tau(  14) = (   0.0000000   0.0267527   1.0436345  )
        15           V   tau(  15) = (   0.0000000   0.8911229   1.0503652  )
        16           V   tau(  16) = (   0.2500000   1.0343974   1.3796436  )
        17           V   tau(  17) = (   0.2500000   1.0343974   0.2403623  )
        18           V   tau(  18) = (   0.0000000   0.8911229   0.5696407  )
        19           O   tau(  19) = (   0.2500000   0.9576180   1.1039633  )
        20           O   tau(  20) = (   0.0000000   0.9679023   1.3260456  )
        21           O   tau(  21) = (   0.0000000   0.9679023   0.2939603  )
        22           O   tau(  22) = (   0.2500000   0.9576180   0.5160426  )
        23           O   tau(  23) = (   0.0000000   0.6685927   0.5763714  )
        24           O   tau(  24) = (   0.2500000   1.2569275   0.2336316  )
        25           O   tau(  25) = (   0.2500000   1.2569275   1.3863743  )
        26           O   tau(  26) = (   0.2500000   0.9640271   0.0000000  )
        27           O   tau(  27) = (   0.0000000   0.9614931   0.8100029  )
        28           O   tau(  28) = (   0.0000000   0.6685927   1.0436345  )
        29           V   tau(  29) = (   0.5000000   0.2492828   1.0503652  )
        30           V   tau(  30) = (   0.7500000   0.3925573   1.3796436  )
        31           V   tau(  31) = (   0.7500000   0.3925573   0.2403623  )
        32           V   tau(  32) = (   0.5000000   0.2492828   0.5696407  )
        33           O   tau(  33) = (   0.7500000   0.3157779   1.1039633  )
        34           O   tau(  34) = (   0.5000000   0.3260622   1.3260456  )
        35           O   tau(  35) = (   0.5000000   0.3260622   0.2939603  )
        36           O   tau(  36) = (   0.7500000   0.3157779   0.5160426  )
        37           O   tau(  37) = (   0.5000000   0.0267527   0.5763714  )
        38           O   tau(  38) = (   0.7500000   0.6150874   0.2336316  )
        39           O   tau(  39) = (   0.7500000   0.6150874   1.3863743  )
        40           O   tau(  40) = (   0.7500000   0.3221871   0.0000000  )
        41           O   tau(  41) = (   0.5000000   0.3196530   0.8100029  )
        42           O   tau(  42) = (   0.5000000   0.0267527   1.0436345  )
        43           V   tau(  43) = (   0.5000000   0.8911229   1.0503652  )
        44           V   tau(  44) = (   0.7500000   1.0343974   1.3796436  )
        45           V   tau(  45) = (   0.7500000   1.0343974   0.2403623  )
        46           V   tau(  46) = (   0.5000000   0.8911229   0.5696407  )
        47           O   tau(  47) = (   0.7500000   0.9576180   1.1039633  )
        48           O   tau(  48) = (   0.5000000   0.9679023   1.3260456  )
        49           O   tau(  49) = (   0.5000000   0.9679023   0.2939603  )
        50           O   tau(  50) = (   0.7500000   0.9576180   0.5160426  )
        51           O   tau(  51) = (   0.5000000   0.6685927   0.5763714  )
        52           O   tau(  52) = (   0.7500000   1.2569275   0.2336316  )
        53           O   tau(  53) = (   0.7500000   1.2569275   1.3863743  )
        54           O   tau(  54) = (   0.7500000   0.9640271   0.0000000  )
        55           O   tau(  55) = (   0.5000000   0.9614931   0.8100029  )
        56           O   tau(  56) = (   0.5000000   0.6685927   1.0436345  )
        57           Li  tau(  57) = (   0.2183196   0.5168877   0.8038094  )

     number of k points=     8  Gaussian smearing, width (Ry)=  0.0200
                       cart. coord. in units 2pi/alat
        k(    1) = (   0.0000000   0.0000000   0.0000000), wk =   0.2500000
        k(    2) = (   0.0000000   0.0000000  -0.3086409), wk =   0.2500000
        k(    3) = (   0.0000000  -0.3895051   0.0000000), wk =   0.2500000
        k(    4) = (   0.0000000  -0.3895051  -0.3086409), wk =   0.2500000
        k(    5) = (  -0.5000000   0.0000000   0.0000000), wk =   0.2500000
        k(    6) = (  -0.5000000   0.0000000  -0.3086409), wk =   0.2500000
        k(    7) = (  -0.5000000  -0.3895051   0.0000000), wk =   0.2500000
        k(    8) = (  -0.5000000  -0.3895051  -0.3086409), wk =   0.2500000

     Check: negative core charge=   -0.000001

     Initial potential from superposition of free atoms

     starting charge  450.98080, renormalised to  451.00000
     Starting wfcs are  325 randomized atomic wfcs
     Checking if some PAW data can be deallocated...

     Self-consistent Calculation

     iteration #  1     ecut=    65.00 Ry     beta= 0.20
     Davidson diagonalization with overlap
     ethr =  1.00E-02,  avg # of iterations =  2.0

     total energy              =   -5110.28609176 Ry
     Harris-Foulkes estimate   =   -5114.90739811 Ry
     estimated scf accuracy    <      33.15556626 Ry

[...]

     negative rho (up, down):  6.815E-04 0.000E+00

[...]

     End of self-consistent calculation

          k = 0.0000 0.0000 0.0000 ( 45283 PWs)   bands (ev):

   -60.2625 -60.2467 -60.2080 -60.1961 -60.1955 -60.1891 -60.1676 -60.1607
   -60.1268 -60.1198 -60.0931 -60.0889 -60.0885 -60.0844 -60.0796 -60.0760
   -40.7333 -34.3416 -34.3222 -34.2687 -34.2545 -34.2388 -34.2302 -34.2021
   -34.1940 -34.1520 -34.1433 -34.1357 -34.1178 -34.1102 -34.1090 -34.1060
   -34.1025 -34.0988 -34.0969 -34.0753 -34.0734 -34.0731 -34.0698 -34.0611
   -34.0608 -34.0524 -34.0473 -34.0297 -34.0245 -34.0092 -33.9968 -33.9950
   -33.9835 -33.9764 -33.9644 -33.9605 -33.9544 -33.9539 -33.9489 -33.9416
   -33.9346 -33.9269 -33.9149 -33.9141 -33.9066 -33.9029 -33.8975 -33.8850
   -33.8807 -13.8358 -13.7040 -13.6940 -13.5861 -13.0861 -12.8886 -12.8824
   -12.8071 -12.7955 -12.7589 -12.6775 -12.6537 -12.6124 -12.6117 -12.5799
   -12.5771 -12.5443 -12.5180 -12.5152 -12.4139 -12.4066 -12.3766 -12.3679
   -12.3212 -12.2729 -12.2430 -12.1505 -12.1297 -12.0630 -12.0365 -11.9836
   -11.9576 -11.9137 -11.9057 -11.8759 -11.8675 -11.8499 -11.8388 -11.8251
   -11.8085  -0.9565  -0.8476  -0.7664  -0.7601  -0.7196  -0.6356  -0.6260
    -0.6239  -0.5967  -0.5852  -0.5777  -0.5577  -0.5373  -0.5029  -0.4981
    -0.4864  -0.4169  -0.4045  -0.3094  -0.2960  -0.2301  -0.1861  -0.0791
[...]
     new conv_thr            =            1.0E-12 Ry

ATOMIC_POSITIONS (angstrom)
V            -0.0144851548        1.7857035797        7.5000632840
V             1.7820599468        2.7878131502        9.8408902755
V             1.7821598262        2.7526923695        1.7033288729
V            -0.0232084542        1.7216740567        4.0444155661
O             1.7820414052        2.2653735308        7.8744208376
O            -0.0178818114        2.3135330244        9.4582456586
O            -0.0129686956        2.2643071150        2.0992722574
O             1.7821379275        2.2683067772        3.7058223861
O            -0.0497334923        0.1341757284        4.1206826757
O             1.7822316783        4.3420765376        1.6669319422
O             1.7821123847        4.3764868302        9.9055159546
O             1.7821196057        2.2730242096       -0.0145066925
O             0.1219387846        2.2964696100        5.7583266525
O            -0.0612457363        0.1979545127        7.4518711353
V             0.0120067348        6.4089236505        7.5130089122
V             1.7818049909        7.4133335287        9.8700317770
V             1.7819232347        7.4143404591        1.7339239370
V             0.0296449398        6.4011046237        4.1140361926
O             1.7818208845        6.9522032047        7.8651596008
O             0.0080853201        6.8901862492        9.4902286198
O             0.0144084838        6.8771794309        2.1313075720
O             1.7819225145        6.9850125006        3.7498134155
O             0.2443394807        4.8095981321        4.2794764507
O             1.7819499357        9.0066358919        1.6824215770
O             1.7817551024        9.0041758665        9.9142524254
O             1.7818664238        6.9143143169        0.0185611502
O            -0.0374563381        6.9559608903        5.8010780714
O             0.1181146568        4.8189618127        7.3699777012
V             3.5785198841        1.7856517170        7.5000680049
V             5.3539493173        2.8329275238        9.8298122317
V             5.3540592195        2.7893132501        1.7192529120
V             3.5874489078        1.7216270418        4.0444004557
O             5.3539425189        2.3341295381        7.8066960896
O             3.5819684656        2.3133945601        9.4582635905
O             3.5772572336        2.2641924608        2.0992644468
O             5.3540465404        2.2636285455        3.7454040931
O             3.6138919467        0.1341273624        4.1206867914
O             5.3539955073        4.3811617365        1.7348860450
O             5.3538371094        4.4239386464        9.8587540769
O             5.3540377672        2.3584427365       -0.0103841111
O             3.4422728142        2.2964553121        5.7583147132
O             3.6251608623        0.1978991618        7.4518566263
V             3.5516771327        6.4090345067        7.5129736339
V             5.3537420391        7.3492697992        9.8773098388
V             5.3538543069        7.3198017650        1.7379712786
V             3.5342849988        6.4012339913        4.1140458910
O             5.3537733934        6.8064168613        7.9046448263
O             3.5555708137        6.8902756151        9.4901713103
O             3.5494538235        6.8772435434        2.1313558224
O             5.3538787706        6.7053427751        3.7029773353
O             3.3197359938        4.8097129422        4.2795217589
O             5.3539013200        8.9110860085        1.6944724463
O             5.3537901071        8.9383870582        9.9402876189
O             5.3537191662        6.8298081484        0.0218893410
O             3.6011715323        6.9561444130        5.8010769385
O             3.4456256914        4.8190778585        7.3698147686
Li            1.7822756620        3.7127234711        5.2976268579

     Writing output data file ./v2o5.save/
     NEW-OLD atomic charge density approx. for the potential

     Check: negative core charge=   -0.000001

[...]

     Self-consistent Calculation

[...]

     Threshold (ethr) on eigenvalues was too large:
     Diagonalizing with lowered threshold

     Davidson diagonalization with overlap
     ethr =  5.85E-13,  avg # of iterations =  5.0

[...]

     total energy              =   -5109.97557688 Ry
     Harris-Foulkes estimate   =   -5109.97557688 Ry
     estimated scf accuracy    <          2.1E-12 Ry

     iteration #  7     ecut=    65.00 Ry     beta= 0.20
     Davidson diagonalization with overlap
     ethr =  1.00E-13,  avg # of iterations =  1.0

[...]

     End of self-consistent calculation

[...]

          k = 0.0000-0.3895-0.3086 ( 45312 PWs)   bands (ev):

[...]

          k =-0.5000-0.3895-0.3086 ( 45240 PWs)   bands (ev):

   -60.2714 -60.2708 -60.2148 -60.2013 -60.2000 -60.1991 -60.1804 -60.1759
   -60.1759 -60.1753 -60.1732 -60.1644 -60.1588 -60.1554 -60.1525 -60.1500
   -39.5399 -34.2850 -34.2843 -34.2530 -34.2514 -34.2352 -34.2264 -34.2173
   -34.2111 -34.2060 -34.2024 -34.2011 -34.1855 -34.1753 -34.1729 -34.1720
   -34.1676 -34.1341 -34.1325 -34.1125 -34.0988 -34.0864 -34.0830 -34.0805
   -34.0747 -34.0593 -34.0570 -34.0531 -34.0486 -34.0383 -34.0304 -34.0275
   -34.0229 -34.0163 -34.0076 -34.0015 -33.9962 -33.9936 -33.9874 -33.9803
   -33.9779 -33.9737 -33.9697 -33.9679 -33.9669 -33.9654 -33.9645 -33.9608
   -33.9571 -13.4618 -13.4099 -13.3815 -13.3564 -13.3481 -13.3329 -13.3257
   -13.3173 -12.6464 -12.6152 -12.5982 -12.5792 -12.5453 -12.5379 -12.5373
   -12.5233 -12.5137 -12.4960 -12.4927 -12.4896 -12.4781 -12.4754 -12.4670
   -12.4552 -12.2250 -12.1368 -12.0748 -12.0644 -12.0590 -12.0368 -12.0338
   -12.0206 -12.0018 -11.9639 -11.9547 -11.9256 -11.9210 -11.9109 -11.9042
   -11.8978  -1.0749  -1.0627  -1.0617  -1.0507  -1.0351  -1.0137  -1.0108
    -1.0016  -0.4433  -0.3623  -0.3452  -0.3226  -0.3170  -0.3047  -0.2868
    -0.2812  -0.1805  -0.1336  -0.0411  -0.0397  -0.0328  -0.0087  -0.0023
     0.0061   0.2019   0.2232   0.2602   0.2908   0.2952   0.3206   0.3484
     0.3526   0.4331   0.4816   0.5000   0.5220   0.5241   0.5615   0.5907
     0.6168   0.6192   0.6220   0.6499   0.6757   0.7036   0.7148   0.8002
     0.8145   1.2261   1.2309   1.2856   1.2931   1.3114   1.3237   1.3468
     1.3742   1.5878   1.5912   1.5971   1.6202   1.6270   1.6296   1.6634
     1.6809   1.6930   1.7150   1.7625   1.7765   1.7923   1.8028   1.8086
     1.8280   1.8345   1.8915   1.9300   1.9344   1.9477   1.9658   1.9783
     1.9789   2.2024   2.2034   2.2213   2.2424   2.2579   2.2739   2.3103
     2.3128   2.4246   2.5405   2.5466   2.5883   2.5957   2.6077   2.6242
     2.6280   2.9371   2.9376   3.0205   3.0246   3.0612   3.0695   3.0770
     3.1033   3.1657   3.2013   3.2041   3.2161   3.2306   3.2506   3.2795
     3.3053   3.3176   3.3719   3.4105   3.4203   3.4510   3.4527   3.4547
     3.4693   5.9448   5.9455   5.9678   5.9701   6.0094   6.0099   6.0396
     6.0534   6.6728   6.8858   6.9085   6.9106   6.9555   6.9651   6.9752
     6.9933   7.0519   7.1785   7.2084   7.2299   7.2398   7.2521   7.2629
     7.2766   7.3151   7.3156   7.3549   7.3693   7.3978   7.4231   7.4443
     7.4517   7.4909   7.5683   7.5851   7.5875   7.5921   7.5995   7.6302
     7.6333   7.7115   7.7281   7.7625   7.7988   7.8014   7.8147

     the Fermi energy is     5.5324 ev

!    total energy              =   -5109.97557688 Ry
     Harris-Foulkes estimate   =   -5109.97557688 Ry
     estimated scf accuracy    <          8.5E-13 Ry

     total all-electron energy =    -36417.391257 Ry

     The total energy is the sum of the following terms:

     one-electron contribution =   -2413.02940216 Ry
     hartree contribution      =    1374.56022017 Ry
     xc contribution           =    -623.10109198 Ry
     ewald contribution        =   -1946.93897931 Ry
     one-center paw contrib.   =   -1501.44670752 Ry
     smearing contrib. (-TS)   =      -0.01961609 Ry

     convergence has been achieved in   7 iterations

     negative rho (up, down):  1.271E-03 0.000E+00

     Forces acting on atoms (cartesian axes, Ry/au):

     atom    1 type  1   force =    -0.00000182   -0.00000081   -0.00000097
     atom    2 type  1   force =    -0.00000214   -0.00000088   -0.00000117
     atom    3 type  1   force =     0.00000046    0.00000211   -0.00000284
     atom    4 type  1   force =     0.00000092   -0.00000067   -0.00000307
     atom    5 type  2   force =     0.00000475   -0.00000398    0.00000390
     atom    6 type  2   force =     0.00000252   -0.00000155    0.00000438
     atom    7 type  2   force =    -0.00000387   -0.00000123    0.00000785
     atom    8 type  2   force =     0.00000015    0.00000120    0.00000046
     atom    9 type  2   force =    -0.00000011    0.00000367    0.00000442
     atom   10 type  2   force =    -0.00000485    0.00000299   -0.00000008
     atom   11 type  2   force =    -0.00000230    0.00000034    0.00000513
     atom   12 type  2   force =    -0.00000441    0.00000072    0.00000032
     atom   13 type  2   force =    -0.00000533    0.00000613   -0.00000013
     atom   14 type  2   force =    -0.00000065    0.00000379   -0.00000431
     atom   15 type  1   force =     0.00000153    0.00000380   -0.00000106
     atom   16 type  1   force =     0.00000362   -0.00000251    0.00000031
     atom   17 type  1   force =     0.00000351    0.00000304   -0.00000108
     atom   18 type  1   force =     0.00000305    0.00000339   -0.00000148
     atom   19 type  2   force =     0.00000141    0.00000096    0.00000545
     atom   20 type  2   force =     0.00000169   -0.00000313   -0.00000382
     atom   21 type  2   force =    -0.00000097    0.00000216    0.00000233
     atom   22 type  2   force =    -0.00000113    0.00000245   -0.00000218
     atom   23 type  2   force =    -0.00000542   -0.00000223    0.00000259
     atom   24 type  2   force =    -0.00000276    0.00000279   -0.00000460
     atom   25 type  2   force =     0.00000353   -0.00000460   -0.00000025
     atom   26 type  2   force =     0.00000587    0.00000498    0.00000140
     atom   27 type  2   force =     0.00000483   -0.00000419   -0.00000114
     atom   28 type  2   force =    -0.00000750   -0.00000076   -0.00000797
     atom   29 type  1   force =    -0.00000023    0.00000023   -0.00000431
     atom   30 type  1   force =    -0.00000386   -0.00000115   -0.00000076
     atom   31 type  1   force =    -0.00000251    0.00000070   -0.00000068
     atom   32 type  1   force =     0.00000152    0.00000049    0.00000058
     atom   33 type  2   force =    -0.00000017   -0.00000391   -0.00000011
     atom   34 type  2   force =     0.00000010    0.00000272    0.00000442
     atom   35 type  2   force =    -0.00000667    0.00000294    0.00000565
     atom   36 type  2   force =    -0.00000661   -0.00000059   -0.00000083
     atom   37 type  2   force =     0.00000504    0.00000133    0.00000206
     atom   38 type  2   force =     0.00000007    0.00000025    0.00000037
     atom   39 type  2   force =     0.00000252   -0.00000195    0.00000290
     atom   40 type  2   force =    -0.00000173   -0.00000119    0.00000073
     atom   41 type  2   force =     0.00000215    0.00000445    0.00000096
     atom   42 type  2   force =     0.00000927    0.00000328   -0.00000191
     atom   43 type  1   force =     0.00000109   -0.00000084   -0.00000084
     atom   44 type  1   force =     0.00000393    0.00000323   -0.00000087
     atom   45 type  1   force =     0.00000474    0.00000523    0.00000027
     atom   46 type  1   force =     0.00000103   -0.00000391   -0.00000043
     atom   47 type  2   force =    -0.00000121   -0.00000762   -0.00000354
     atom   48 type  2   force =     0.00000011   -0.00000227    0.00000140
     atom   49 type  2   force =    -0.00000242    0.00000392   -0.00000305
     atom   50 type  2   force =    -0.00000471   -0.00000960    0.00000113
     atom   51 type  2   force =    -0.00000472   -0.00000925    0.00000633
     atom   52 type  2   force =     0.00000144    0.00000815    0.00000159
     atom   53 type  2   force =     0.00000147    0.00000566   -0.00000016
     atom   54 type  2   force =     0.00000606   -0.00000620   -0.00000086
     atom   55 type  2   force =     0.00000261   -0.00000301   -0.00000170
     atom   56 type  2   force =     0.00000130   -0.00000595   -0.00000591
     atom   57 type  3   force =    -0.00000419   -0.00000313   -0.00000480

     Total force =     0.000046     Total SCF correction =     0.000003

     bfgs converged in 105 scf cycles and 104 bfgs steps
     (criteria: energy <  1.0E-04 Ry, force <  1.0E-05 Ry/Bohr)

     End of BFGS Geometry Optimization

     Final energy   =   -5109.9755768773 Ry
Begin final coordinates

ATOMIC_POSITIONS (angstrom)
V            -0.0144851548        1.7857035797        7.5000632840
V             1.7820599468        2.7878131502        9.8408902755
V             1.7821598262        2.7526923695        1.7033288729
V            -0.0232084542        1.7216740567        4.0444155661
O             1.7820414052        2.2653735308        7.8744208376
O            -0.0178818114        2.3135330244        9.4582456586
O            -0.0129686956        2.2643071150        2.0992722574
O             1.7821379275        2.2683067772        3.7058223861
O            -0.0497334923        0.1341757284        4.1206826757
O             1.7822316783        4.3420765376        1.6669319422
O             1.7821123847        4.3764868302        9.9055159546
O             1.7821196057        2.2730242096       -0.0145066925
O             0.1219387846        2.2964696100        5.7583266525
O            -0.0612457363        0.1979545127        7.4518711353
V             0.0120067348        6.4089236505        7.5130089122
V             1.7818049909        7.4133335287        9.8700317770
V             1.7819232347        7.4143404591        1.7339239370
V             0.0296449398        6.4011046237        4.1140361926
O             1.7818208845        6.9522032047        7.8651596008
O             0.0080853201        6.8901862492        9.4902286198
O             0.0144084838        6.8771794309        2.1313075720
O             1.7819225145        6.9850125006        3.7498134155
O             0.2443394807        4.8095981321        4.2794764507
O             1.7819499357        9.0066358919        1.6824215770
O             1.7817551024        9.0041758665        9.9142524254
O             1.7818664238        6.9143143169        0.0185611502
O            -0.0374563381        6.9559608903        5.8010780714
O             0.1181146568        4.8189618127        7.3699777012
V             3.5785198841        1.7856517170        7.5000680049
V             5.3539493173        2.8329275238        9.8298122317
V             5.3540592195        2.7893132501        1.7192529120
V             3.5874489078        1.7216270418        4.0444004557
O             5.3539425189        2.3341295381        7.8066960896
O             3.5819684656        2.3133945601        9.4582635905
O             3.5772572336        2.2641924608        2.0992644468
O             5.3540465404        2.2636285455        3.7454040931
O             3.6138919467        0.1341273624        4.1206867914
O             5.3539955073        4.3811617365        1.7348860450
O             5.3538371094        4.4239386464        9.8587540769
O             5.3540377672        2.3584427365       -0.0103841111
O             3.4422728142        2.2964553121        5.7583147132
O             3.6251608623        0.1978991618        7.4518566263
V             3.5516771327        6.4090345067        7.5129736339
V             5.3537420391        7.3492697992        9.8773098388
V             5.3538543069        7.3198017650        1.7379712786
V             3.5342849988        6.4012339913        4.1140458910
O             5.3537733934        6.8064168613        7.9046448263
O             3.5555708137        6.8902756151        9.4901713103
O             3.5494538235        6.8772435434        2.1313558224
O             5.3538787706        6.7053427751        3.7029773353
O             3.3197359938        4.8097129422        4.2795217589
O             5.3539013200        8.9110860085        1.6944724463
O             5.3537901071        8.9383870582        9.9402876189
O             5.3537191662        6.8298081484        0.0218893410
O             3.6011715323        6.9561444130        5.8010769385
O             3.4456256914        4.8190778585        7.3698147686
Li            1.7822756620        3.7127234711        5.2976268579
End final coordinates

     Writing output data file ./v2o5.save/

     General routines

     Parallel routines

   This run was terminated on:   0:24: 4  16Nov2021

   JOB DONE.