     Program PWSCF v.6.4.1 starts on 10Mar2024 at 19:23:33

     R & G space division:  proc/nbgrp/npool/nimage =      32
     Reading input from interface.rlx.in

     Current dimensions of program PWSCF are:
     Max number of different atomic species (ntypx) = 10
     Max number of k-points (npk) =  40000
     Max angular momentum in pseudopotentials (lmaxx) =  3

     IMPORTANT: XC functional enforced from input :
     Exchange-correlation      = VDW-DF ( 1  4  4  0 1 0)
     Any further DFT definition will be discarded
     Please, verify this is what you really want

               file V.pbesol-spnl-kjpaw_psl.1.0.0.UPF: wavefunction(s)  3P 3D renormalized
               file O.pbesol-n-kjpaw_psl.1.0.0.UPF: wavefunction(s)  2S 2P renormalized
               file C.pbesol-n-kjpaw_psl.1.0.0.UPF: wavefunction(s)  2S 2P renormalized

     Subspace diagonalization in iterative solution of the eigenvalue problem:
     one sub-group per band group will be used

     bravais-lattice index     =            0
     lattice parameter (alat)  =      30.2219  a.u.
     unit-cell volume          =   28307.6739 (a.u.)^3
     number of atoms/cell      =          176
     number of atomic types    =            3
     number of electrons       =      1040.00
     number of Kohn-Sham states=          624
     kinetic-energy cutoff     =      40.0000  Ry
     charge density cutoff     =     400.0000  Ry
     convergence threshold     =      1.0E-06
     mixing beta               =       0.4000
     number of iterations used =            8  local-TF  mixing
     Exchange-correlation      = VDW-DF ( 1  4  4  0 1 0)
     nstep                     =          500

     celldm(1)=  30.221920  celldm(2)=   0.000000  celldm(3)=   0.000000
     celldm(4)=   0.000000  celldm(5)=   0.000000  celldm(6)=   0.000000

     crystal axes: (cart. coord. in units of alat)
               a(1) = (   1.000000   0.000000   0.000000 )
               a(2) = (  -0.522247   0.468590   0.000000 )
               a(3) = (   0.000000   0.000000   2.188492 )

     reciprocal axes: (cart. coord. in units 2 pi/alat)
               b(1) = (  1.000000  1.114507 -0.000000 )
               b(2) = (  0.000000  2.134061  0.000000 )
               b(3) = (  0.000000 -0.000000  0.456936 )

     PseudoPot. # 1 for V  read from file:
     /home/mpicuntureo/pseudos/V.pbesol-spnl-kjpaw_psl.1.0.0.UPF
     MD5 check sum: d709b3179d4cab0f72010db8785d50db
     Pseudo is Projector augmented-wave + core cor, Zval = 13.0
     Generated using "atomic" code by A. Dal Corso v.6.3
     Shape of augmentation charge: PSQ
     Using radial grid of 1181 points,  6 beta functions with:
                l(1) =   0
                l(2) =   0
                l(3) =   1
                l(4) =   1
                l(5) =   2
                l(6) =   2
     Q(r) pseudized with 0 coefficients

     PseudoPot. # 2 for O  read from file:
     /home/mpicuntureo/pseudos/O.pbesol-n-kjpaw_psl.1.0.0.UPF
     MD5 check sum: cb766521a97cf798d01896eaf7ac9a0a
     Pseudo is Projector augmented-wave + core cor, Zval =  6.0
     Generated using "atomic" code by A. Dal Corso v.6.3
     Shape of augmentation charge: PSQ
     Using radial grid of 1095 points,  4 beta functions with:
                l(1) =   0
                l(2) =   0
                l(3) =   1
                l(4) =   1
     Q(r) pseudized with 0 coefficients

     PseudoPot. # 3 for C  read from file:
     /home/mpicuntureo/pseudos/C.pbesol-n-kjpaw_psl.1.0.0.UPF
     MD5 check sum: f9b2fe17d1f478429498b05d17159f9e
     Pseudo is Projector augmented-wave + core cor, Zval =  4.0
     Generated using "atomic" code by A. Dal Corso v.6.3
     Shape of augmentation charge: PSQ
     Using radial grid of 1073 points,  4 beta functions with:
                l(1) =   0
                l(2) =   0
                l(3) =   1
                l(4) =   1
     Q(r) pseudized with 0 coefficients

     vdW kernel table read from file vdW_kernel_table
     MD5 check sum: 8c4337f4b28e1601c069d7ef7b6561bc

     atomic species   valence    mass     pseudopotential
        V             13.00    50.94150     V ( 1.00)
        O              6.00    15.99940     O ( 1.00)
        C              4.00    12.01100     C ( 1.00)

     No symmetry found

   Cartesian axes

     site n.     atom                  positions (alat units)
         1           V   tau(   1) = (   0.2358757   0.0850626   0.4872556  )
         2           V   tau(   2) = (   0.5540937   0.3977351   0.4890303  )
         3           V   tau(   3) = (   0.3953268   0.2413856   0.4881184  )
         4           V   tau(   4) = (  -0.2689823   0.3772128   0.5661017  )
         5           V   tau(   5) = (   0.5716723   0.2208150   0.5663084  )
         6           V   tau(   6) = (   0.4123267   0.0644543   0.5658763  )
         7           V   tau(   7) = (  -0.1096048   0.2438380   0.5660969  )
         8           V   tau(   8) = (   0.7314297   0.0880323   0.5653958  )
         9           V   tau(   9) = (   0.0498789   0.4007215   0.5663523  )
        10           V   tau(  10) = (   0.0669517   0.2240711   0.4883533  )
        11           V   tau(  11) = (   0.9081983   0.0670715   0.4879049  )
        12           V   tau(  12) = (   0.2260907   0.3794715   0.4878849  )
        13           V   tau(  13) = (   0.2324922   0.0860150   0.7838908  )
        14           V   tau(  14) = (   0.5512255   0.3982181   0.7837179  )
        15           V   tau(  15) = (   0.3918493   0.2419997   0.7835924  )
        16           V   tau(  16) = (  -0.2760240   0.3822811   0.8758586  )
        17           V   tau(  17) = (   0.5646642   0.2259986   0.8758419  )
        18           V   tau(  18) = (   0.4053924   0.0699576   0.8759846  )
        19           V   tau(  19) = (  -0.1025270   0.2392424   0.8757642  )
        20           V   tau(  20) = (   0.7382638   0.0829247   0.8760962  )
        21           V   tau(  21) = (   0.0567613   0.3953986   0.8756467  )
        22           V   tau(  22) = (   0.0702054   0.2231934   0.7836400  )
        23           V   tau(  23) = (   0.9110280   0.0669830   0.7836509  )
        24           V   tau(  24) = (   0.2296706   0.3795209   0.7835075  )
        25           O   tau(  25) = (  -0.3532098   0.4620655   0.5246606  )
        26           O   tau(  26) = (   0.4872766   0.3056379   0.5255982  )
        27           O   tau(  27) = (   0.3282373   0.1492381   0.5239339  )
        28           O   tau(  28) = (   0.3193922   0.0011871   0.5305953  )
        29           O   tau(  29) = (   0.6377492   0.3138926   0.5316844  )
        30           O   tau(  30) = (   0.4786146   0.1574106   0.5315520  )
        31           O   tau(  31) = (  -0.0163857   0.3075524   0.5325307  )
        32           O   tau(  32) = (   0.8244825   0.1511401   0.5299393  )
        33           O   tau(  33) = (   0.1427760   0.4638818   0.5306780  )
        34           O   tau(  34) = (  -0.0251548   0.1593539   0.5244836  )
        35           O   tau(  35) = (   0.8154133   0.0030090   0.5236866  )
        36           O   tau(  36) = (   0.1341115   0.3155605   0.5259109  )
        37           O   tau(  37) = (   0.0614756   0.2294333   0.3873498  )
        38           O   tau(  38) = (   0.9049203   0.0699540   0.3867138  )
        39           O   tau(  39) = (   0.2203549   0.3822840   0.3867813  )
        40           O   tau(  40) = (  -0.1163086   0.2501587   0.6663655  )
        41           O   tau(  41) = (   0.7259542   0.0951916   0.6656991  )
        42           O   tau(  42) = (   0.0440632   0.4087135   0.6665437  )
        43           O   tau(  43) = (  -0.2627172   0.3706863   0.6663777  )
        44           O   tau(  44) = (   0.5778756   0.2134745   0.6665355  )
        45           O   tau(  45) = (   0.4180001   0.0570868   0.6661367  )
        46           O   tau(  46) = (  -0.1893261   0.3104593   0.5215730  )
        47           O   tau(  47) = (   0.6515517   0.1546924   0.5211971  )
        48           O   tau(  48) = (  -0.0300724   0.4667153   0.5210913  )
        49           O   tau(  49) = (   0.1515864   0.1545669   0.5120838  )
        50           O   tau(  50) = (   0.4699945   0.4668727   0.5153719  )
        51           O   tau(  51) = (   0.3106422   0.3103907   0.5130674  )
        52           O   tau(  52) = (   0.2406432   0.0805397   0.3861481  )
        53           O   tau(  53) = (   0.5579249   0.3939770   0.3879023  )
        54           O   tau(  54) = (   0.4012248   0.2379886   0.3870484  )
        55           O   tau(  55) = (  -0.3559800   0.4621471   0.8171399  )
        56           O   tau(  56) = (   0.4848693   0.3057751   0.8166645  )
        57           O   tau(  57) = (   0.3255384   0.1497288   0.8169771  )
        58           O   tau(  58) = (   0.3157115   0.0027975   0.8355629  )
        59           O   tau(  59) = (   0.6342534   0.3150696   0.8354737  )
        60           O   tau(  60) = (   0.4749837   0.1588057   0.8353078  )
[...]
       162           C   tau( 162) = (   0.6224336   0.0809851  -0.0075692  )
       163           C   tau( 163) = (   0.1688239   0.0198632  -0.0161687  )
       164           C   tau( 164) = (   0.5881055   0.3458671  -0.0130747  )
       165           C   tau( 165) = (   0.5296259   0.2032804  -0.0099372  )
       166           C   tau( 166) = (  -0.5046322   0.4680901  -0.0189955  )
       167           C   tau( 167) = (   0.4369311   0.3254593  -0.0174125  )
       168           C   tau( 168) = (   0.3784661   0.1828606  -0.0146310  )
       169           C   tau( 169) = (   0.3441109   0.4477584  -0.0180985  )
       170           C   tau( 170) = (   0.2856938   0.3051259  -0.0191168  )
       171           C   tau( 171) = (   0.2272718   0.1624843  -0.0183462  )
       172           C   tau( 172) = (   0.1929267   0.4273673  -0.0140668  )
       173           C   tau( 173) = (   0.1344568   0.2847803  -0.0170570  )
       174           C   tau( 174) = (   0.0417504   0.4069461  -0.0094875  )
       175           C   tau( 175) = (   0.4711767   0.0606541  -0.0077803  )
       176           C   tau( 176) = (   0.3199836   0.0402805  -0.0114247  )

     number of k points=     4  gaussian smearing, width (Ry)=  0.1000
                       cart. coord. in units 2pi/alat
        k(    1) = (   0.0000000   0.0000000   0.0000000), wk =   0.5000000
        k(    2) = (   0.0000000  -1.0670305   0.0000000), wk =   0.5000000
        k(    3) = (  -0.5000000  -0.5572533   0.0000000), wk =   0.5000000
        k(    4) = (  -0.5000000  -1.6242837   0.0000000), wk =   0.5000000

     Check: negative core charge=   -0.000004

     Initial potential from superposition of free atoms

     starting charge 1039.97582, renormalised to 1040.00000

     negative rho (up, down):  3.434E-03 0.000E+00

     %%%%%%%%%%%%%%%%%%%%%%%%%%%%%%%%%%%%%%%%%%%%%%%%%%%%%%%%%%%%%%%%%%%%%%%%
     %                                                                      %
     % You are using vdW-DF, which was implemented by the Thonhauser group. %
     % Please cite the following two papers that made this development      %
[...]
     2.7390   2.7607   2.7746   2.7748   2.7774   2.7802   2.7841   2.8147
     2.8176   2.8700   2.8852   2.8928   2.9110   2.9741   3.0251   3.1344

          k = 0.0000-1.0670 0.0000 (120926 PWs)   bands (ev):

[...]

          k =-0.5000-0.5573 0.0000 (120880 PWs)   bands (ev):

[...]

          k =-0.5000-1.6243 0.0000 (120890 PWs)   bands (ev):

   -65.9090 -65.9075 -65.9073 -65.9060 -65.9057 -65.9040 -65.8409 -65.8398
   -65.8393 -65.8374 -65.8364 -65.8361 -65.8343 -65.8329 -65.8325 -65.8314
   -65.8299 -65.8297 -65.7693 -65.7687 -65.7679 -65.7676 -65.7670 -65.7665
   -39.8859 -39.8845 -39.8814 -39.8811 -39.8791 -39.8789 -39.8332 -39.8316
   -39.8296 -39.8290 -39.8271 -39.8264 -39.8169 -39.8149 -39.8126 -39.8122
   -39.8097 -39.8094 -39.7576 -39.7571 -39.7451 -39.7343 -39.7341 -39.7321
   -39.7317 -39.7299 -39.7295 -39.7272 -39.7263 -39.7215 -39.7159 -39.7155
   -39.7079 -39.7067 -39.6740 -39.6738 -39.6690 -39.6629 -39.6618 -39.6593
   -39.6591 -39.6532 -39.6528 -39.6526 -39.6506 -39.6500 -39.6404 -39.6289
   -39.6285 -39.6273 -39.6267 -39.6258 -39.6256 -39.6088 -39.6010 -39.6009
   -39.6003 -39.6002 -39.5980 -39.5977 -39.5815 -39.5810 -39.5782 -39.5664
   -39.5603 -39.5596 -39.5492 -39.5486 -39.5453 -39.5447 -39.5179 -39.5171
   -19.9700 -19.9666 -19.7337 -19.6944 -19.4793 -19.4738 -19.3500 -19.3348
   -19.0916 -19.0916 -18.9807 -18.9807 -18.9739 -18.9722 -18.9317 -18.9298
   -18.8435 -18.8429 -18.8365 -18.8354 -18.7997 -18.7982 -18.7270 -18.7261
   -18.4600 -18.4305 -18.3543 -18.3528 -18.3398 -18.3388 -18.3229 -18.2915
   -18.2828 -18.2827 -18.2494 -18.2488 -18.2371 -18.2360 -18.2182 -18.2081
   -18.1936 -18.1922 -18.1783 -18.1772 -18.1513 -18.1510 -18.1465 -18.0652
   -18.0543 -18.0538 -18.0446 -18.0341 -17.7000 -17.6907 -17.6865 -17.6861
   -17.6816 -17.6694 -17.6678 -17.6676 -17.6224 -17.6204 -17.6020 -17.6010
   -17.5349 -17.5345 -17.5323 -17.5313 -17.5181 -17.5083 -17.5079 -17.4933
   -17.4492 -17.4369 -17.4286 -17.4279 -17.4111 -17.4105 -17.2807 -17.2780
   -17.2145 -17.2144 -16.9628 -16.9628 -16.4305 -16.4302 -16.2257 -16.2256
   -16.1829 -16.1825 -15.9750 -15.9747 -15.0954 -15.0954 -15.0851 -15.0850
   -14.8583 -14.8571 -14.8468 -14.8383 -14.8366 -14.7326 -14.7319 -14.6131
   -14.4936 -14.4928 -13.8531 -13.6149 -13.4573 -13.4562 -13.2190 -13.2187
   -12.1982 -12.1981 -12.0551 -12.0550 -12.0061 -12.0059 -11.9613 -11.9598
   -11.8256 -11.8241 -11.7611 -11.7610 -11.0956 -11.0956 -10.9826 -10.9825
   -10.8615 -10.8614 -10.7476 -10.7475  -9.9856  -9.9846  -9.9140  -9.9139
    -9.7575  -9.7544  -9.7059  -9.7059  -9.6836  -9.6836  -9.4709  -9.4701
    -8.9835  -8.9834  -8.7551  -8.7549  -8.4994  -8.4989  -8.3749  -8.3748
    -8.2672  -8.2668  -8.1809  -8.1719  -8.1457  -8.1387  -7.4836  -7.4344
    -7.1799  -7.1706  -7.1704  -7.1199  -7.1194  -7.0223  -7.0222  -6.9893
    -6.9890  -6.9700  -6.9694  -6.9516  -6.9395  -6.9385  -6.8955  -6.8951
    -6.8789  -6.8789  -6.7774  -6.7770  -6.7505  -6.7483  -6.6757  -6.6755
    -6.6738  -6.6667  -6.6510  -6.6498  -6.6020  -6.5945  -6.5575  -6.5565
    -6.5189  -6.5188  -6.4848  -6.4840  -6.4434  -6.4431  -6.3261  -6.3260
    -6.3027  -6.2941  -6.2726  -6.2719  -6.1712  -6.1618  -6.1538  -6.1525
    -6.1082  -6.0521  -5.9911  -5.9362  -5.9339  -5.9265  -5.9221  -5.8858
    -5.8676  -5.8675  -5.8497  -5.8192  -5.8179  -5.7705  -5.7692  -5.7580
    -5.7566  -5.7348  -5.6862  -5.6466  -5.6411  -5.6398  -5.6286  -5.6259
    -5.6022  -5.5996  -5.5708  -5.5692  -5.5506  -5.5224  -5.5115  -5.5106
    -5.3984  -5.3682  -5.3650  -5.3633  -5.3396  -5.3388  -5.3009  -5.2940
    -5.2902  -5.2805  -5.2135  -5.2101  -5.1246  -5.1216  -5.0661  -5.0654
    -4.9976  -4.9946  -4.9939  -4.9649  -4.9635  -4.9518  -4.9037  -4.8651
    -4.8612  -4.8407  -4.8386  -4.8307  -4.8183  -4.8126  -4.7397  -4.7393
    -4.7205  -4.7191  -4.5956  -4.5943  -4.5787  -4.5423  -4.5006  -4.4981
    -4.4978  -4.4938  -4.4797  -4.4593  -4.4354  -4.4328  -4.3079  -4.2958
    -4.2867  -4.2608  -4.2551  -4.2547  -4.2310  -4.2291  -4.2127  -4.1915
    -4.1894  -4.1433  -4.1416  -4.1403  -4.1401  -4.1355  -4.1307  -4.1294
    -4.0766  -4.0739  -4.0255  -4.0112  -4.0104  -3.9905  -3.9900  -3.9805
    -3.9724  -3.9703  -3.9319  -3.9034  -3.8688  -3.8670  -3.8623  -3.8618
    -3.8212  -3.8192  -3.8083  -3.8076  -3.8063  -3.7819  -3.7801  -3.7763
    -3.7762  -3.7654  -3.7250  -3.7231  -3.7039  -3.6794  -3.6544  -3.6517
    -3.6127  -3.6030  -3.6021  -3.5787  -3.5398  -3.5317  -3.5104  -3.4962
    -3.4606  -3.4484  -3.4404  -3.4145  -3.4118  -3.3450  -3.3098  -3.2946
    -3.2874  -3.2760  -3.2552  -3.2523  -3.2314  -3.2292  -3.1866  -3.1820
    -3.1815  -3.1774  -3.1506  -3.1483  -3.1329  -3.0870  -3.0440  -2.9995
    -2.8799  -2.8779  -2.8768  -2.8754  -2.8606  -2.8578  -2.8118  -2.7862
    -2.7811  -2.7684  -2.7099  -2.7069  -2.6857  -2.6833  -2.6753  -2.6660
[...]
    -2.2245  -2.2015  -2.1987  -2.1592  -2.1562  -2.1392  -2.1372  -2.1199
    -2.1188  -2.1064  -2.0787  -2.0749  -2.0601  -2.0578  -2.0135  -2.0118
     0.0458   0.0480   0.0789   0.2188   0.4557   0.4632   0.5317   0.5339
     0.6120   0.6178   0.6511   0.6521   1.0007   1.0020   1.1404   1.1426
     1.1668   1.1692   1.1915   1.2160   1.2178   1.2721   1.3186   1.3192
     1.3339   1.3454   1.3466   1.3492   1.3659   1.3738   1.3844   1.3845
     1.4866   1.5010   1.5604   1.5728   1.6202   1.6259   1.6674   1.6733
     1.6815   1.6878   1.6941   1.7016   1.7056   1.7062   1.7233   1.7328
     1.7351   1.7389   1.7483   1.7564   1.7641   1.8027   1.8050   1.8278
     1.8290   1.8372   1.8389   1.8929   1.8946   1.9622   1.9675   1.9825
     1.9882   2.0390   2.0709   2.0714   2.1084   2.1215   2.1266   2.1289
     2.2130   2.2154   2.3459   2.3508   2.3517   2.3538   2.5413   2.5425
     2.6378   2.6473   2.6627   2.6655   2.6792   2.6936   2.7599   2.7638
     2.7800   2.8025   2.8429   2.9058   2.9118   2.9283   2.9364   2.9621
     2.9691   2.9782   2.9810   2.9922   3.0091   3.0161   3.0237   3.0335

     the Fermi energy is    -0.6782 ev

!    total energy              =   -9449.96553529 Ry
     Harris-Foulkes estimate   =   -9449.96553443 Ry
     estimated scf accuracy    <       0.00000048 Ry

     total all-electron energy =    -61728.475704 Ry

     The total energy is the sum of the following terms:

     one-electron contribution =  -93470.00495265 Ry
     hartree contribution      =   46951.38787068 Ry
     xc contribution           =   -1391.79955858 Ry
     ewald contribution        =   41359.32935426 Ry
     one-center paw contrib.   =   -2897.51947728 Ry
     smearing contrib. (-TS)   =      -1.35877172 Ry

     convergence has been achieved in  29 iterations

     negative rho (up, down):  5.605E-02 0.000E+00

     Forces acting on atoms (cartesian axes, Ry/au):

     atom    1 type  1   force =     0.00039921    0.00013251    0.00019189
     atom    2 type  1   force =     0.00021506    0.00026102    0.00020455
     atom    3 type  1   force =     0.00045494    0.00034407    0.00027074
     atom    4 type  1   force =    -0.00004676   -0.00047992    0.00007114
     atom    5 type  1   force =     0.00019200   -0.00038777    0.00048668
     atom    6 type  1   force =     0.00011708   -0.00015675   -0.00063145
     atom    7 type  1   force =    -0.00006015    0.00070206    0.00016407
     atom    8 type  1   force =    -0.00016719    0.00029025    0.00032204
     atom    9 type  1   force =    -0.00014840    0.00020214    0.00021412
     atom   10 type  1   force =    -0.00020458   -0.00038568    0.00030565
     atom   11 type  1   force =    -0.00026706   -0.00003379    0.00039145
     atom   12 type  1   force =    -0.00033617   -0.00038170    0.00036345
     atom   13 type  1   force =     0.00007999    0.00025077    0.00056714
     atom   14 type  1   force =     0.00014060    0.00026951    0.00080327
     atom   15 type  1   force =     0.00012860    0.00036176    0.00063642
     atom   16 type  1   force =    -0.00004813   -0.00036367   -0.00089247
     atom   17 type  1   force =    -0.00005131   -0.00028364   -0.00097768
     atom   18 type  1   force =    -0.00007083   -0.00019577   -0.00053495
     atom   19 type  1   force =     0.00006992    0.00052671   -0.00112327
     atom   20 type  1   force =     0.00004268    0.00023119   -0.00062837
     atom   21 type  1   force =    -0.00008720    0.00034663   -0.00106639
     atom   22 type  1   force =    -0.00013736   -0.00027455    0.00054145
     atom   23 type  1   force =    -0.00008974   -0.00027245    0.00092845
     atom   24 type  1   force =    -0.00022522   -0.00039585    0.00059557
     atom   25 type  2   force =     0.00032668   -0.00064200   -0.00023622
     atom   26 type  2   force =     0.00061420   -0.00044921   -0.00036560
     atom   27 type  2   force =     0.00046868   -0.00031729   -0.00052184
     atom   28 type  2   force =    -0.00009311    0.00002790    0.00047550
     atom   29 type  2   force =    -0.00018885    0.00001745    0.00048239
     atom   30 type  2   force =     0.00001380    0.00029269    0.00026517
     atom   31 type  2   force =     0.00012523   -0.00010690    0.00034908
     atom   32 type  2   force =     0.00007841    0.00008498    0.00066582
     atom   33 type  2   force =    -0.00001297   -0.00029675    0.00039989
     atom   34 type  2   force =    -0.00049515    0.00071184   -0.00054441
     atom   35 type  2   force =    -0.00041177    0.00049292   -0.00046620
     atom   36 type  2   force =    -0.00073171    0.00040270   -0.00070942
     atom   37 type  2   force =    -0.00055021    0.00022126   -0.00059272
     atom   38 type  2   force =    -0.00048827    0.00004618   -0.00047041
     atom   39 type  2   force =    -0.00041632    0.00029568   -0.00033328
     atom   40 type  2   force =     0.00022516    0.00032485    0.00081632
     atom   41 type  2   force =    -0.00000976    0.00017609    0.00021430
     atom   42 type  2   force =     0.00015223    0.00014879    0.00101945
     atom   43 type  2   force =    -0.00012671   -0.00052698    0.00087573
     atom   44 type  2   force =    -0.00003235   -0.00039791    0.00084611
     atom   45 type  2   force =    -0.00019740   -0.00012949    0.00085756
     atom   46 type  2   force =    -0.00006551    0.00001170    0.00019319
     atom   47 type  2   force =    -0.00011304   -0.00011277    0.00013811
     atom   48 type  2   force =     0.00011831   -0.00002296    0.00055044
     atom   49 type  2   force =     0.00007416   -0.00009956   -0.00080286
     atom   50 type  2   force =    -0.00021926   -0.00013141   -0.00070262
     atom   51 type  2   force =     0.00010136    0.00009528   -0.00077491
     atom   52 type  2   force =     0.00058175    0.00005371   -0.00030980
     atom   53 type  2   force =     0.00051884   -0.00017176   -0.00077853
     atom   54 type  2   force =     0.00061591   -0.00039375   -0.00054629
     atom   55 type  2   force =     0.00038112   -0.00040148    0.00089341
     atom   56 type  2   force =     0.00031387   -0.00043964    0.00099727
     atom   57 type  2   force =     0.00034825   -0.00041764    0.00093031
     atom   58 type  2   force =    -0.00016210    0.00016302   -0.00013889
     atom   59 type  2   force =    -0.00033136    0.00026166   -0.00007688
     atom   60 type  2   force =    -0.00009226    0.00027275   -0.00016820
[...]
     atom  162 type  3   force =    -0.00006895   -0.00016831   -0.00040919
     atom  163 type  3   force =     0.00004776   -0.00005699    0.00011155
     atom  164 type  3   force =    -0.00027212   -0.00016975   -0.00004584
     atom  165 type  3   force =     0.00000114   -0.00010674   -0.00038706
     atom  166 type  3   force =    -0.00033412    0.00008691    0.00051634
     atom  167 type  3   force =    -0.00024845    0.00015590    0.00015464
     atom  168 type  3   force =    -0.00018882    0.00016225    0.00002094
     atom  169 type  3   force =     0.00017317   -0.00003483    0.00033495
     atom  170 type  3   force =    -0.00020784   -0.00028124    0.00050358
     atom  171 type  3   force =    -0.00012859   -0.00028806    0.00020011
     atom  172 type  3   force =    -0.00021103   -0.00033634   -0.00014057
     atom  173 type  3   force =     0.00001343   -0.00041329    0.00024348
     atom  174 type  3   force =     0.00006516    0.00014666   -0.00039064
     atom  175 type  3   force =     0.00022003    0.00025231   -0.00047137
     atom  176 type  3   force =     0.00000671   -0.00003448   -0.00022433

     Total force =     0.007905     Total SCF correction =     0.002096
     SCF correction compared to forces is large: reduce conv_thr to get better values

     BFGS Geometry Optimization

     bfgs converged in   1 scf cycles and   0 bfgs steps
     (criteria: energy <  1.0E-04 Ry, force <  1.0E-02 Ry/Bohr)

     End of BFGS Geometry Optimization

     Final energy   =   -9449.9655352880 Ry
Begin final coordinates

ATOMIC_POSITIONS (angstrom)
V        3.772301013   1.360385458   7.792558119
V        8.861483358   6.360879133   7.820940634
V        6.322362932   3.860420602   7.806356318
V       -4.301767333   6.032670619   9.053524349
V        9.142613134   3.531439174   9.056828793
V        6.594238837   1.030801649   9.049918617
V       -1.752882687   3.899640709   9.053446560
V       11.697573120   1.407878254   9.042235005
V        0.797701146   6.408638788   9.057531112
V        1.070742568   3.583513681   7.810112851
V       14.524589605   1.072657559   7.802942300
V        3.615812711   6.068792659   7.802621618
V        3.718190195   1.375616504  12.536570503
V        8.815611959   6.368602279  12.533805438
V        6.266748225   3.870241447  12.531797450
V       -4.414382792   6.113726695  14.007388517
V        9.030533750   3.614340142  14.007121727
V        6.483340105   1.118814754  14.009404363
V       -1.639688734   3.826143697  14.005879557
V       11.806869535   1.326194053  14.011188710
V        0.907769587   6.323511671  14.003999334
V        1.122778205   3.569477023  12.532559496
V       14.569844229   1.071242187  12.532733166
V        3.673064585   6.069583934  12.530441130
O       -5.648796589   7.389698789   8.390765995
O        7.792893654   4.887991514   8.405760592
O        5.249416877   2.386727547   8.379144699
O        5.107959274   0.018985628   8.485678634
O       10.199364554   5.020005444   8.503095778
O        7.654363861   2.517428695   8.500978915
O       -0.262052704   4.918609761   8.516630904
O       13.185742882   2.417145778   8.475187631
O        2.283380478   7.418746741   8.487001694
O       -0.402294640   2.548507992   8.387936122
O       13.040701662   0.048122786   8.375190229
O        2.144811634   5.046680412   8.410762489
O        0.983164295   3.669268925   6.194788336
O       14.472165215   1.118756243   6.184616869
O        3.524080606   6.113773367   6.185697367
O       -1.860094523   4.000725968  10.657017638
O       11.610005418   1.522375863  10.646360070
O        0.704691592   6.536452961  10.659867543
O       -4.201570019   5.928294176  10.657212583
O        9.241820457   3.414044583  10.659735745
O        6.684971352   0.912974994  10.653358029
O       -3.027845930   4.965098198   8.341387372
O       10.420104464   2.473956908   8.335375767
O       -0.480940080   7.464061110   8.333684032
O        2.424282916   2.471950448   8.189628359
O        7.516505285   7.466579656   8.242214325
O        4.968023762   4.964001427   8.205358515
O        3.848547543   1.288052012   6.175569672
O        8.922753525   6.300775340   6.203625704
O        6.416688924   3.806092905   6.189969114
O       -5.693099182   7.391003352  13.068315724
O        7.754394673   4.890185004  13.060712285
O        5.206254026   2.394575303  13.065712104
O        5.049095840   0.044740318  13.362948758
O       10.143456005   5.038829193  13.361522475
O        7.596296811   2.539739693  13.358870521
[...]
C        9.954426129   1.295174580  -0.121052837
C        2.699957919   0.317667792  -0.258581240
C        9.405425222   5.531365861  -0.209100741
C        8.470174484   3.251012269  -0.158923636
C       -8.070456967   7.486049263  -0.303790003
C        6.987730223   5.204989553  -0.278473266
C        6.052713484   2.924444111  -0.233989725
C        5.503279251   7.160888304  -0.289444797
C        4.569030238   4.879801874  -0.305730283
C        3.634701592   2.598571118  -0.293405542
C        3.085428951   6.834778383  -0.224966600
C        2.150333618   4.554419922  -0.272787845
C        0.667703143   6.508187062  -0.151731201
C        7.535411917   0.970025514  -0.124428709
C        5.117418475   0.644195787  -0.182712253
End final coordinates

     Writing output data file interface.save/

     General routines

     Parallel routines

   This run was terminated on:   6: 1:27  11Mar2024

   JOB DONE.