     Program PWSCF v.6.4.1 starts on 20May2024 at  3:30:27

     R & G space division:  proc/nbgrp/npool/nimage =      32
     Reading input from v16o40.rlx.in
Warning: card &CELL ignored
Warning: card     CELL_DYNAMICS  = "BFGS" ignored
Warning: card / ignored

     Current dimensions of program PWSCF are:
     Max number of different atomic species (ntypx) = 10
     Max number of k-points (npk) =  40000
     Max angular momentum in pseudopotentials (lmaxx) =  3
               file V.pbe-spnl-kjpaw_psl.1.0.0.UPF: wavefunction(s)  3P 3D renormalized
               file O.pbe-n-kjpaw_psl.1.0.0.UPF: wavefunction(s)  2S 2P renormalized

     Parameters for Dispersion (Grimme-D2) Correction:
       atom      VdW radius       C_6

        V          2.952        374.666
        O          2.536         24.284

     Subspace diagonalization in iterative solution of the eigenvalue problem:
     one sub-group per band group will be used

     Found symmetry operation: I + (  0.0000  0.5000  0.0000)
     This is a supercell, fractional translations are disabled

     bravais-lattice index     =            8
     lattice parameter (alat)  =      13.3968  a.u.
     unit-cell volume          =    4868.8223 (a.u.)^3
     number of atoms/cell      =           56
     number of atomic types    =            2
     number of electrons       =       448.00
     number of Kohn-Sham states=          269
     kinetic-energy cutoff     =      65.0000  Ry
     charge density cutoff     =     650.0000  Ry
     convergence threshold     =      1.0E-09
     mixing beta               =       0.7000
     number of iterations used =            8  plain     mixing
     Exchange-correlation      = SLA PW PBX PBC ( 1  4  3  4 0 0)
     nstep                     =          500

     celldm(1)=  13.396828  celldm(2)=   1.235512  celldm(3)=   1.638970
     celldm(4)=   0.000000  celldm(5)=   0.000000  celldm(6)=   0.000000

     crystal axes: (cart. coord. in units of alat)
               a(1) = (   1.000000   0.000000   0.000000 )
               a(2) = (   0.000000   1.235512   0.000000 )
               a(3) = (   0.000000   0.000000   1.638970 )

     reciprocal axes: (cart. coord. in units 2 pi/alat)
               b(1) = (  1.000000  0.000000  0.000000 )
               b(2) = (  0.000000  0.809381  0.000000 )
               b(3) = (  0.000000  0.000000  0.610139 )

     PseudoPot. # 1 for V  read from file:
     /home/mpicuntureo/pseudos/V.pbe-spnl-kjpaw_psl.1.0.0.UPF
     MD5 check sum: 069c5df6a0a9f40a694a86a6cab52b89
     Pseudo is Projector augmented-wave + core cor, Zval = 13.0
     Generated using "atomic" code by A. Dal Corso v.6.3
     Shape of augmentation charge: PSQ
     Using radial grid of 1181 points,  6 beta functions with:
                l(1) =   0
                l(2) =   0
                l(3) =   1
                l(4) =   1
                l(5) =   2
                l(6) =   2
     Q(r) pseudized with 0 coefficients

     PseudoPot. # 2 for O  read from file:
     /home/mpicuntureo/pseudos/O.pbe-n-kjpaw_psl.1.0.0.UPF
     MD5 check sum: e99d9cef9b487d1ca56f5b95ecd0fd7a
     Pseudo is Projector augmented-wave + core cor, Zval =  6.0
     Generated using "atomic" code by A. Dal Corso v.6.3
     Shape of augmentation charge: PSQ
     Using radial grid of 1095 points,  4 beta functions with:
                l(1) =   0
                l(2) =   0
                l(3) =   1
                l(4) =   1
     Q(r) pseudized with 0 coefficients

     atomic species   valence    mass     pseudopotential
        V             13.00    50.94150     V ( 1.00)
        O              6.00    15.99940     O ( 1.00)

      4 Sym. Ops. (no inversion) found

   Cartesian axes

     site n.     atom                  positions (alat units)
         1           V   tau(   1) = (   0.0000000   0.2364294   1.0621922  )
         2           V   tau(   2) = (   0.2500000   0.3813267   1.3962627  )
         3           V   tau(   3) = (   0.2500000   0.3813267   0.2427073  )
         4           V   tau(   4) = (   0.0000000   0.2364294   0.5767777  )
         5           O   tau(   5) = (   0.2500000   0.3045856   1.1164488  )
         6           O   tau(   6) = (   0.0000000   0.3131705   1.3420061  )
         7           O   tau(   7) = (   0.0000000   0.3131705   0.2969638  )
         8           O   tau(   8) = (   0.2500000   0.3045856   0.5225211  )
         9           O   tau(   9) = (   0.0000000   0.0117965   0.5799858  )
        10           O   tau(  10) = (   0.2500000   0.6059596   0.2394992  )
        11           O   tau(  11) = (   0.2500000   0.6059596   1.3994707  )
        12           O   tau(  12) = (   0.2500000   0.3152971   0.0000000  )
        13           O   tau(  13) = (   0.0000000   0.3024589   0.8194850  )
        14           O   tau(  14) = (   0.0000000   0.0117965   1.0589842  )
        15           V   tau(  15) = (   0.0000000   0.8541855   1.0621922  )
        16           V   tau(  16) = (   0.2500000   0.9990828   1.3962627  )
        17           V   tau(  17) = (   0.2500000   0.9990828   0.2427073  )
        18           V   tau(  18) = (   0.0000000   0.8541855   0.5767777  )
        19           O   tau(  19) = (   0.2500000   0.9223417   1.1164488  )
        20           O   tau(  20) = (   0.0000000   0.9309265   1.3420061  )
        21           O   tau(  21) = (   0.0000000   0.9309265   0.2969638  )
        22           O   tau(  22) = (   0.2500000   0.9223417   0.5225211  )
        23           O   tau(  23) = (   0.0000000   0.6295526   0.5799858  )
        24           O   tau(  24) = (   0.2500000   1.2237157   0.2394992  )
        25           O   tau(  25) = (   0.2500000   1.2237157   1.3994707  )
        26           O   tau(  26) = (   0.2500000   0.9330532   0.0000000  )
        27           O   tau(  27) = (   0.0000000   0.9202150   0.8194850  )
        28           O   tau(  28) = (   0.0000000   0.6295526   1.0589842  )
        29           V   tau(  29) = (   0.5000000   0.2364294   1.0621922  )
        30           V   tau(  30) = (   0.7500000   0.3813267   1.3962627  )
        31           V   tau(  31) = (   0.7500000   0.3813267   0.2427073  )
        32           V   tau(  32) = (   0.5000000   0.2364294   0.5767777  )
        33           O   tau(  33) = (   0.7500000   0.3045856   1.1164488  )
        34           O   tau(  34) = (   0.5000000   0.3131705   1.3420061  )
        35           O   tau(  35) = (   0.5000000   0.3131705   0.2969638  )
        36           O   tau(  36) = (   0.7500000   0.3045856   0.5225211  )
        37           O   tau(  37) = (   0.5000000   0.0117965   0.5799858  )
        38           O   tau(  38) = (   0.7500000   0.6059596   0.2394992  )
        39           O   tau(  39) = (   0.7500000   0.6059596   1.3994707  )
        40           O   tau(  40) = (   0.7500000   0.3152971   0.0000000  )
        41           O   tau(  41) = (   0.5000000   0.3024589   0.8194850  )
        42           O   tau(  42) = (   0.5000000   0.0117965   1.0589842  )
        43           V   tau(  43) = (   0.5000000   0.8541855   1.0621922  )
        44           V   tau(  44) = (   0.7500000   0.9990828   1.3962627  )
        45           V   tau(  45) = (   0.7500000   0.9990828   0.2427073  )
        46           V   tau(  46) = (   0.5000000   0.8541855   0.5767777  )
        47           O   tau(  47) = (   0.7500000   0.9223417   1.1164488  )
        48           O   tau(  48) = (   0.5000000   0.9309265   1.3420061  )
        49           O   tau(  49) = (   0.5000000   0.9309265   0.2969638  )
        50           O   tau(  50) = (   0.7500000   0.9223417   0.5225211  )
        51           O   tau(  51) = (   0.5000000   0.6295526   0.5799858  )
        52           O   tau(  52) = (   0.7500000   1.2237157   0.2394992  )
        53           O   tau(  53) = (   0.7500000   1.2237157   1.3994707  )
        54           O   tau(  54) = (   0.7500000   0.9330532   0.0000000  )
        55           O   tau(  55) = (   0.5000000   0.9202150   0.8194850  )
        56           O   tau(  56) = (   0.5000000   0.6295526   1.0589842  )

     number of k points=     8  gaussian smearing, width (Ry)=  0.0500
                       cart. coord. in units 2pi/alat
        k(    1) = (   0.0000000   0.0000000   0.0000000), wk =   0.2500000
        k(    2) = (   0.0000000   0.0000000  -0.3050697), wk =   0.2500000
        k(    3) = (   0.0000000  -0.4046905   0.0000000), wk =   0.2500000
        k(    4) = (   0.0000000  -0.4046905  -0.3050697), wk =   0.2500000
        k(    5) = (  -0.5000000   0.0000000   0.0000000), wk =   0.2500000
        k(    6) = (  -0.5000000   0.0000000  -0.3050697), wk =   0.2500000
        k(    7) = (  -0.5000000  -0.4046905   0.0000000), wk =   0.2500000
        k(    8) = (  -0.5000000  -0.4046905  -0.3050697), wk =   0.2500000

     Check: negative core charge=   -0.000001

     Initial potential from superposition of free atoms

     starting charge  447.98541, renormalised to  448.00000
     Starting wfcs are  320 randomized atomic wfcs
     Checking if some PAW data can be deallocated...

     Self-consistent Calculation

     iteration #  1     ecut=    65.00 Ry     beta= 0.70
     Davidson diagonalization with overlap
     ethr =  1.00E-02,  avg # of iterations =  2.0

     total energy              =   -5072.65808508 Ry
     Harris-Foulkes estimate   =   -5100.28974171 Ry
     estimated scf accuracy    <      34.04271307 Ry

[...]

     negative rho (up, down):  4.750E-05 0.000E+00

[...]

     iteration # 11     ecut=    65.00 Ry     beta= 0.70
     Davidson diagonalization with overlap
     c_bands:  1 eigenvalues not converged
     ethr =  1.87E-06,  avg # of iterations = 12.4

[...]

     End of self-consistent calculation

          k = 0.0000 0.0000 0.0000 ( 43117 PWs)   bands (ev):

   -59.8187 -59.8186 -59.8168 -59.8167 -59.8110 -59.8110 -59.8110 -59.8110
   -59.8092 -59.8092 -59.8091 -59.8091 -59.8080 -59.8080 -59.8061 -59.8061
   -33.8223 -33.8199 -33.8193 -33.8168 -33.8163 -33.8133 -33.8133 -33.8107
   -33.8107 -33.8107 -33.8106 -33.8092 -33.8092 -33.8063 -33.8063 -33.8051
   -33.7447 -33.7440 -33.7361 -33.7361 -33.7356 -33.7356 -33.7087 -33.7087
   -33.7081 -33.7081 -33.6934 -33.6927 -33.6660 -33.6659 -33.6500 -33.6500
   -33.6499 -33.6499 -33.6359 -33.6356 -33.6335 -33.6332 -33.6237 -33.6237
   -33.6237 -33.6237 -33.6170 -33.6169 -33.6023 -33.6021 -33.5999 -33.5997
   -13.4391 -13.3212 -13.3122 -13.2110 -12.4552 -12.4552 -12.3776 -12.3776
   -12.3715 -12.2764 -12.2764 -12.2665 -12.2429 -12.2429 -12.2328 -12.1861
   -12.1424 -12.1374 -12.1056 -12.0780 -12.0381 -12.0381 -12.0143 -12.0143
   -11.7231 -11.7167 -11.7071 -11.6895 -11.6434 -11.6434 -11.6067 -11.6067
   -11.5629 -11.5629 -11.5609 -11.5316 -11.5289 -11.5289 -11.5088 -11.4681
    -0.4580  -0.4580  -0.4273  -0.4273  -0.2763  -0.2622  -0.2569  -0.2569
    -0.2436  -0.2436  -0.2231  -0.2188  -0.2031  -0.1976  -0.1891  -0.1274
    -0.0647  -0.0583   0.0854   0.0854   0.1012   0.1764   0.1764   0.3920
     0.4159   0.5040   0.5040   0.5432   0.5735   0.5735   0.5840   0.6615
[...]
O        0.000000000   4.462618400   7.507622359
V        3.544647955   1.675699869   7.529038586
V        5.316970736   2.703715139   9.899678407
V        5.316970736   2.703715139   1.719464355
V        3.544647955   1.675699869   4.090104163
O        5.316971845   2.159967733   7.915037865
O        3.544647955   2.219488280   9.513675998
O        3.544647955   2.219488280   2.105466764
O        5.316971845   2.159967733   3.704104885
O        3.544647955   0.083160193   4.111520546
O        5.316971988   4.296293675   1.698051035
O        5.316971988   4.296293675   9.921091727
O        5.316971963   2.234968545   0.000000000
O        3.544647955   2.144486532   5.809571380
O        3.544647955   0.083160193   7.507622226
V        3.544647955   6.055193900   7.529037237
V        5.316972280   7.083213040   9.899678105
V        5.316972280   7.083213040   1.719464657
V        3.544647955   6.055193900   4.090105512
O        5.316971823   6.539422725   7.915038384
O        3.544647955   6.598943678   9.513676125
O        3.544647955   6.598943678   2.105466637
O        5.316971823   6.539422725   3.704104366
O        3.544647955   4.462616887   4.111520447
O        5.316971943   8.675752205   1.698051024
O        5.316971943   8.675752205   9.921091738
O        5.316971942   6.614424217   0.000000000
O        3.544647955   6.523942224   5.809571380
O        3.544647955   4.462616887   7.507622325

     Writing output data file v16o40.save/
     NEW-OLD atomic charge density approx. for the potential

[...]

     Threshold (ethr) on eigenvalues was too large:
     Diagonalizing with lowered threshold

     Davidson diagonalization with overlap
     ethr =  3.94E-09,  avg # of iterations =  5.2

[...]

     energy   old            =   -5095.2005051241 Ry
     energy   new            =   -5095.2005953767 Ry

     CASE: energy  _new < energy  _old

[...]

     number of scf cycles    =   9
     number of bfgs steps    =   8

     energy   old            =   -5095.2006665649 Ry
     energy   new            =   -5095.2006677582 Ry

     CASE: energy  _new < energy  _old

     new trust radius        =       0.0008194460 bohr
     new conv_thr            =            1.0E-11 Ry

ATOMIC_POSITIONS (angstrom)
V        0.000000000   1.674557266   7.528894092
V        1.772323930   2.704602741   9.899798092
V        1.772323930   2.704602741   1.719344670
V        0.000000000   1.674557266   4.090248657
O        1.772324055   2.163276128   7.914358886
O        0.000000000   2.216000660   9.514253720
O        0.000000000   2.216000660   2.104889042
O        1.772324055   2.163276128   3.704783864
O        0.000000000   0.081768528   4.111498607
O        1.772324219   4.297404905   1.698083755
O        1.772324219   4.297404905   9.921059007
O        1.772323787   2.234198579   0.000000000
O        0.000000000   2.145086153   5.809571380
O        0.000000000   0.081768528   7.507644165
V        0.000000000   6.054307835   7.528915764
V        1.772324129   7.084353828   9.899820079
V        1.772324129   7.084353828   1.719322683
V        0.000000000   6.054307835   4.090226985
O        1.772323945   6.542910092   7.914460995
O        0.000000000   6.595636889   9.514354938
O        0.000000000   6.595636889   2.104787824
O        1.772323945   6.542910092   3.704681755
O        0.000000000   4.461507432   4.111489384
O        1.772323926   8.677141966   1.698073160
O        1.772323926   8.677141966   9.921069602
O        1.772323968   6.613826955   0.000000000
O        0.000000000   6.524713390   5.809571380
O        0.000000000   4.461507432   7.507653388
V        3.544647955   1.674556148   7.528894018
V        5.316971994   2.704602741   9.899798092
V        5.316971994   2.704602741   1.719344670
V        3.544647955   1.674556148   4.090248731
O        5.316971868   2.163276128   7.914358886
O        3.544647955   2.216000454   9.514253688
O        3.544647955   2.216000454   2.104889074
O        5.316971868   2.163276128   3.704783864
O        3.544647955   0.081769519   4.111499258
O        5.316971704   4.297404905   1.698083755
O        5.316971704   4.297404905   9.921059007
O        5.316972136   2.234198579   0.000000000
O        3.544647955   2.145086820   5.809571380
O        3.544647955   0.081769519   7.507643514
V        3.544647955   6.054308083   7.528916133
V        5.316971795   7.084353828   9.899820079
V        5.316971795   7.084353828   1.719322683
V        3.544647955   6.054308083   4.090226616
O        5.316971978   6.542910092   7.914460995
O        3.544647955   6.595636550   9.514355395
O        3.544647955   6.595636550   2.104787367
O        5.316971978   6.542910092   3.704681755
O        3.544647955   4.461506234   4.111488999
O        5.316971997   8.677141966   1.698073160
O        5.316971997   8.677141966   9.921069602
O        5.316971956   6.613826955   0.000000000
O        3.544647955   6.524711208   5.809571380
O        3.544647955   4.461506234   7.507653773

     Writing output data file v16o40.save/
     NEW-OLD atomic charge density approx. for the potential

     Check: negative core charge=   -0.000001

[...]

     Self-consistent Calculation

[...]

     Threshold (ethr) on eigenvalues was too large:
     Diagonalizing with lowered threshold

     Davidson diagonalization with overlap
     ethr =  2.85E-10,  avg # of iterations =  5.0

[...]

     total energy              =   -5095.20066869 Ry
     Harris-Foulkes estimate   =   -5095.20066869 Ry
     estimated scf accuracy    <          7.8E-11 Ry

     iteration # 14     ecut=    65.00 Ry     beta= 0.70
     Davidson diagonalization with overlap
     ethr =  1.00E-13,  avg # of iterations =  1.0

[...]

     End of self-consistent calculation

[...]

          k = 0.0000-0.4047-0.3051 ( 43112 PWs)   bands (ev):

[...]

          k =-0.5000-0.4047-0.3051 ( 43072 PWs)   bands (ev):

   -59.8141 -59.8141 -59.8141 -59.8141 -59.8140 -59.8140 -59.8140 -59.8140
   -59.8064 -59.8064 -59.8064 -59.8064 -59.8064 -59.8064 -59.8064 -59.8064
   -33.8146 -33.8146 -33.8146 -33.8146 -33.8145 -33.8145 -33.8145 -33.8145
   -33.8076 -33.8076 -33.8076 -33.8076 -33.8075 -33.8075 -33.8075 -33.8075
   -33.7263 -33.7263 -33.7263 -33.7263 -33.7262 -33.7262 -33.7262 -33.7262
   -33.6770 -33.6770 -33.6770 -33.6770 -33.6770 -33.6770 -33.6770 -33.6770
   -33.6298 -33.6298 -33.6298 -33.6298 -33.6297 -33.6297 -33.6297 -33.6297
   -33.6176 -33.6176 -33.6176 -33.6176 -33.6176 -33.6176 -33.6176 -33.6176
   -12.9655 -12.9655 -12.9655 -12.9655 -12.9654 -12.9654 -12.9654 -12.9654
   -12.1414 -12.1414 -12.1414 -12.1414 -12.1414 -12.1414 -12.1414 -12.1414
   -12.0863 -12.0863 -12.0863 -12.0863 -12.0863 -12.0863 -12.0863 -12.0863
   -11.6621 -11.6621 -11.6621 -11.6621 -11.6616 -11.6616 -11.6616 -11.6616
   -11.5356 -11.5356 -11.5356 -11.5356 -11.5351 -11.5351 -11.5351 -11.5351
    -0.6748  -0.6748  -0.6748  -0.6748  -0.6747  -0.6747  -0.6747  -0.6747
    -0.0065  -0.0065  -0.0065  -0.0065  -0.0065  -0.0065  -0.0065  -0.0065
     0.3351   0.3351   0.3351   0.3351   0.3353   0.3353   0.3353   0.3353
     0.6305   0.6305   0.6305   0.6305   0.6308   0.6308   0.6308   0.6308
     0.9226   0.9226   0.9226   0.9226   0.9227   0.9227   0.9227   0.9227
     1.0534   1.0534   1.0534   1.0534   1.0539   1.0539   1.0539   1.0539
     1.6502   1.6502   1.6502   1.6502   1.6508   1.6508   1.6509   1.6509
     2.0486   2.0486   2.0486   2.0486   2.0487   2.0487   2.0487   2.0487
     2.1807   2.1807   2.1807   2.1807   2.1808   2.1808   2.1808   2.1808
     2.3246   2.3246   2.3246   2.3246   2.3247   2.3247   2.3247   2.3247
     2.7107   2.7107   2.7107   2.7107   2.7109   2.7109   2.7109   2.7109
     3.1018   3.1018   3.1018   3.1018   3.1018   3.1018   3.1018   3.1018
     3.5229   3.5229   3.5229   3.5229   3.5231   3.5231   3.5231   3.5231
     3.6883   3.6883   3.6883   3.6883   3.6886   3.6886   3.6886   3.6886
     3.8779   3.8779   3.8779   3.8779   3.8780   3.8780   3.8780   3.8780
     6.4119   6.4119   6.4119   6.4119   6.4120   6.4120   6.4120   6.4120
     7.3844   7.3844   7.3844   7.3844   7.3846   7.3846   7.3846   7.3846
     7.6170   7.6170   7.6170   7.6170   7.6172   7.6172   7.6172   7.6172
     7.8580   7.8580   7.8580   7.8580   7.8582   7.8582   7.8582   7.8582
     8.0345   8.0345   8.0345   8.0345   8.0348   8.0348   8.0348   8.0348
     8.1707   8.1707   8.1708   8.1708   8.1708

     the Fermi energy is     5.1431 ev

!    total energy              =   -5095.20066869 Ry
     Harris-Foulkes estimate   =   -5095.20066869 Ry
     estimated scf accuracy    <          9.4E-12 Ry

     total all-electron energy =    -36402.616338 Ry

     The total energy is the sum of the following terms:

     one-electron contribution =   -2300.15157900 Ry
     hartree contribution      =    1325.30675130 Ry
     xc contribution           =    -619.55088137 Ry
     ewald contribution        =   -1998.69271724 Ry
     Dispersion Correction     =      -0.52890265 Ry
     one-center paw contrib.   =   -1501.55811411 Ry
     smearing contrib. (-TS)   =      -0.02522563 Ry

     convergence has been achieved in  14 iterations

     negative rho (up, down):  1.356E-03 0.000E+00

     Forces acting on atoms (cartesian axes, Ry/au):

     atom    1 type  1   force =     0.00000000    0.00002859   -0.00002357
     atom    2 type  1   force =     0.00000010   -0.00003176    0.00002113
     atom    3 type  1   force =     0.00000010   -0.00003176   -0.00002113
     atom    4 type  1   force =     0.00000000    0.00002859    0.00002357
     atom    5 type  2   force =    -0.00000021    0.00003399    0.00003898
     atom    6 type  2   force =     0.00000000   -0.00005030   -0.00004398
     atom    7 type  2   force =     0.00000000   -0.00005030    0.00004398
     atom    8 type  2   force =    -0.00000021    0.00003399   -0.00003898
     atom    9 type  2   force =     0.00000000    0.00001908   -0.00005427
     atom   10 type  2   force =    -0.00000007   -0.00005365    0.00005562
     atom   11 type  2   force =    -0.00000007   -0.00005365   -0.00005562
     atom   12 type  2   force =     0.00000002   -0.00004865    0.00000000
     atom   13 type  2   force =     0.00000000    0.00003368    0.00000000
     atom   14 type  2   force =     0.00000000    0.00001908    0.00005427
     atom   15 type  1   force =     0.00000000    0.00003442   -0.00002129
     atom   16 type  1   force =    -0.00000027   -0.00002844    0.00002249
     atom   17 type  1   force =    -0.00000027   -0.00002844   -0.00002249
     atom   18 type  1   force =     0.00000000    0.00003442    0.00002129
     atom   19 type  2   force =     0.00000028    0.00005023    0.00004364
     atom   20 type  2   force =     0.00000000   -0.00003458   -0.00003877
     atom   21 type  2   force =     0.00000000   -0.00003458    0.00003877
     atom   22 type  2   force =     0.00000028    0.00005023   -0.00004364
     atom   23 type  2   force =     0.00000000    0.00005031   -0.00005574
     atom   24 type  2   force =     0.00000006   -0.00001769    0.00005455
     atom   25 type  2   force =     0.00000006   -0.00001769   -0.00005455
     atom   26 type  2   force =    -0.00000002   -0.00003432    0.00000000
     atom   27 type  2   force =     0.00000000    0.00004854    0.00000000
     atom   28 type  2   force =     0.00000000    0.00005031    0.00005574
     atom   29 type  1   force =     0.00000000    0.00003276   -0.00002360
     atom   30 type  1   force =    -0.00000010   -0.00003176    0.00002113
     atom   31 type  1   force =    -0.00000010   -0.00003176   -0.00002113
     atom   32 type  1   force =     0.00000000    0.00003276    0.00002360
     atom   33 type  2   force =     0.00000021    0.00003399    0.00003898
     atom   34 type  2   force =     0.00000000   -0.00005040   -0.00004382
     atom   35 type  2   force =     0.00000000   -0.00005040    0.00004382
     atom   36 type  2   force =     0.00000021    0.00003399   -0.00003898
     atom   37 type  2   force =     0.00000000    0.00001495   -0.00005432
     atom   38 type  2   force =     0.00000007   -0.00005365    0.00005562
     atom   39 type  2   force =     0.00000007   -0.00005365   -0.00005562
     atom   40 type  2   force =    -0.00000002   -0.00004865    0.00000000
     atom   41 type  2   force =     0.00000000    0.00003342    0.00000000
     atom   42 type  2   force =     0.00000000    0.00001495    0.00005432
     atom   43 type  1   force =     0.00000000    0.00003168   -0.00002154
     atom   44 type  1   force =     0.00000027   -0.00002844    0.00002249
     atom   45 type  1   force =     0.00000027   -0.00002844   -0.00002249
     atom   46 type  1   force =     0.00000000    0.00003168    0.00002154
     atom   47 type  2   force =    -0.00000028    0.00005023    0.00004364
     atom   48 type  2   force =     0.00000000   -0.00003452   -0.00003896
     atom   49 type  2   force =     0.00000000   -0.00003452    0.00003896
     atom   50 type  2   force =    -0.00000028    0.00005023   -0.00004364
     atom   51 type  2   force =     0.00000000    0.00005320   -0.00005625
     atom   52 type  2   force =    -0.00000006   -0.00001769    0.00005455
     atom   53 type  2   force =    -0.00000006   -0.00001769   -0.00005455
     atom   54 type  2   force =     0.00000002   -0.00003432    0.00000000
     atom   55 type  2   force =     0.00000000    0.00004917    0.00000000
     atom   56 type  2   force =     0.00000000    0.00005320    0.00005625

     Total force =     0.000410     Total SCF correction =     0.000013

     bfgs converged in  10 scf cycles and   9 bfgs steps
     (criteria: energy <  1.0E-04 Ry, force <  1.0E-04 Ry/Bohr)

     End of BFGS Geometry Optimization

     Final energy   =   -5095.2006686860 Ry
Begin final coordinates

ATOMIC_POSITIONS (angstrom)
V        0.000000000   1.674557266   7.528894092
V        1.772323930   2.704602741   9.899798092
V        1.772323930   2.704602741   1.719344670
V        0.000000000   1.674557266   4.090248657
O        1.772324055   2.163276128   7.914358886
O        0.000000000   2.216000660   9.514253720
O        0.000000000   2.216000660   2.104889042
O        1.772324055   2.163276128   3.704783864
O        0.000000000   0.081768528   4.111498607
O        1.772324219   4.297404905   1.698083755
O        1.772324219   4.297404905   9.921059007
O        1.772323787   2.234198579   0.000000000
O        0.000000000   2.145086153   5.809571380
O        0.000000000   0.081768528   7.507644165
V        0.000000000   6.054307835   7.528915764
V        1.772324129   7.084353828   9.899820079
V        1.772324129   7.084353828   1.719322683
V        0.000000000   6.054307835   4.090226985
O        1.772323945   6.542910092   7.914460995
O        0.000000000   6.595636889   9.514354938
O        0.000000000   6.595636889   2.104787824
O        1.772323945   6.542910092   3.704681755
O        0.000000000   4.461507432   4.111489384
O        1.772323926   8.677141966   1.698073160
O        1.772323926   8.677141966   9.921069602
O        1.772323968   6.613826955   0.000000000
O        0.000000000   6.524713390   5.809571380
O        0.000000000   4.461507432   7.507653388
V        3.544647955   1.674556148   7.528894018
V        5.316971994   2.704602741   9.899798092
V        5.316971994   2.704602741   1.719344670
V        3.544647955   1.674556148   4.090248731
O        5.316971868   2.163276128   7.914358886
O        3.544647955   2.216000454   9.514253688
O        3.544647955   2.216000454   2.104889074
O        5.316971868   2.163276128   3.704783864
O        3.544647955   0.081769519   4.111499258
O        5.316971704   4.297404905   1.698083755
O        5.316971704   4.297404905   9.921059007
O        5.316972136   2.234198579   0.000000000
O        3.544647955   2.145086820   5.809571380
O        3.544647955   0.081769519   7.507643514
V        3.544647955   6.054308083   7.528916133
V        5.316971795   7.084353828   9.899820079
V        5.316971795   7.084353828   1.719322683
V        3.544647955   6.054308083   4.090226616
O        5.316971978   6.542910092   7.914460995
O        3.544647955   6.595636550   9.514355395
O        3.544647955   6.595636550   2.104787367
O        5.316971978   6.542910092   3.704681755
O        3.544647955   4.461506234   4.111488999
O        5.316971997   8.677141966   1.698073160
O        5.316971997   8.677141966   9.921069602
O        5.316971956   6.613826955   0.000000000
O        3.544647955   6.524711208   5.809571380
O        3.544647955   4.461506234   7.507653773
End final coordinates

     Writing output data file v16o40.save/

     General routines

     Parallel routines

   This run was terminated on:  12:44:58  20May2024

   JOB DONE.