     Program PWSCF v.6.4.1 starts on 11Jun2024 at 20:41: 2

     R & G space division:  proc/nbgrp/npool/nimage =      32
     Reading input from v16o39.rlx.in
Warning: card &CELL ignored
Warning: card     CELL_DYNAMICS  = "BFGS" ignored
Warning: card / ignored

     Current dimensions of program PWSCF are:
     Max number of different atomic species (ntypx) = 10
     Max number of k-points (npk) =  40000
     Max angular momentum in pseudopotentials (lmaxx) =  3
               file V.pbe-spnl-kjpaw_psl.1.0.0.UPF: wavefunction(s)  3P 3D renormalized
               file O.pbe-n-kjpaw_psl.1.0.0.UPF: wavefunction(s)  2S 2P renormalized

     Parameters for Dispersion (Grimme-D2) Correction:
       atom      VdW radius       C_6

        V          2.952        374.666
        O          2.536         24.284

     Subspace diagonalization in iterative solution of the eigenvalue problem:
     one sub-group per band group will be used

     bravais-lattice index     =            8
     lattice parameter (alat)  =      13.3968  a.u.
     unit-cell volume          =    4868.8223 (a.u.)^3
     number of atoms/cell      =           55
     number of atomic types    =            2
     number of electrons       =       442.00
     number of Kohn-Sham states=          265
     kinetic-energy cutoff     =      65.0000  Ry
     charge density cutoff     =     650.0000  Ry
     convergence threshold     =      1.0E-09
     mixing beta               =       0.7000
     number of iterations used =            8  plain     mixing
     Exchange-correlation      = SLA PW PBX PBC ( 1  4  3  4 0 0)
     nstep                     =          500

     celldm(1)=  13.396828  celldm(2)=   1.235512  celldm(3)=   1.638970
     celldm(4)=   0.000000  celldm(5)=   0.000000  celldm(6)=   0.000000

     crystal axes: (cart. coord. in units of alat)
               a(1) = (   1.000000   0.000000   0.000000 )
               a(2) = (   0.000000   1.235512   0.000000 )
               a(3) = (   0.000000   0.000000   1.638970 )

     reciprocal axes: (cart. coord. in units 2 pi/alat)
               b(1) = (  1.000000  0.000000  0.000000 )
               b(2) = (  0.000000  0.809381  0.000000 )
               b(3) = (  0.000000  0.000000  0.610139 )

     PseudoPot. # 1 for V  read from file:
     /home/mpicuntureo/pseudos/V.pbe-spnl-kjpaw_psl.1.0.0.UPF
     MD5 check sum: 069c5df6a0a9f40a694a86a6cab52b89
     Pseudo is Projector augmented-wave + core cor, Zval = 13.0
     Generated using "atomic" code by A. Dal Corso v.6.3
     Shape of augmentation charge: PSQ
     Using radial grid of 1181 points,  6 beta functions with:
                l(1) =   0
                l(2) =   0
                l(3) =   1
                l(4) =   1
                l(5) =   2
                l(6) =   2
     Q(r) pseudized with 0 coefficients

     PseudoPot. # 2 for O  read from file:
     /home/mpicuntureo/pseudos/O.pbe-n-kjpaw_psl.1.0.0.UPF
     MD5 check sum: e99d9cef9b487d1ca56f5b95ecd0fd7a
     Pseudo is Projector augmented-wave + core cor, Zval =  6.0
     Generated using "atomic" code by A. Dal Corso v.6.3
     Shape of augmentation charge: PSQ
     Using radial grid of 1095 points,  4 beta functions with:
                l(1) =   0
                l(2) =   0
                l(3) =   1
                l(4) =   1
     Q(r) pseudized with 0 coefficients

     atomic species   valence    mass     pseudopotential
        V             13.00    50.94150     V ( 1.00)
        O              6.00    15.99940     O ( 1.00)

      4 Sym. Ops. (no inversion) found

   Cartesian axes

     site n.     atom                  positions (alat units)
         1           V   tau(   1) = (   0.0000000   0.2297890   1.0636570  )
         2           V   tau(   2) = (   0.2480917   0.3847660   1.3944181  )
         3           V   tau(   3) = (   0.2480917   0.3847660   0.2445518  )
         4           V   tau(   4) = (   0.0000000   0.2297890   0.5753129  )
         5           O   tau(   5) = (   0.2481359   0.3044025   1.1163983  )
         6           O   tau(   6) = (   0.0000000   0.3045770   1.3455405  )
         7           O   tau(   7) = (   0.0000000   0.3045770   0.2934294  )
         8           O   tau(   8) = (   0.2481359   0.3044025   0.5225717  )
         9           O   tau(   9) = (   0.0000000   0.0044307   0.5713873  )
        10           O   tau(  10) = (   0.2385383   0.6103710   0.2498001  )
        11           O   tau(  11) = (   0.2385383   0.6103710   1.3891698  )
        12           O   tau(  12) = (   0.2524101   0.3255632   0.0000000  )
        13           O   tau(  13) = (   0.0000000   0.2910271   0.8194850  )
        14           O   tau(  14) = (   0.0000000   0.0044307   1.0675827  )
        15           V   tau(  15) = (   0.0000000   0.8693510   1.0572353  )
        16           V   tau(  16) = (   0.2467811   0.9962590   1.3989413  )
        17           V   tau(  17) = (   0.2467811   0.9962590   0.2400286  )
        18           V   tau(  18) = (   0.0000000   0.8693510   0.5817347  )
        19           O   tau(  19) = (   0.2647348   0.9306349   1.1022737  )
        20           O   tau(  20) = (   0.0000000   0.9398514   1.3292923  )
        21           O   tau(  21) = (   0.0000000   0.9398514   0.3096776  )
        22           O   tau(  22) = (   0.2647348   0.9306349   0.5366963  )
        23           O   tau(  23) = (   0.0000000   0.6454170   0.5908164  )
        24           O   tau(  24) = (   0.2678038   1.2193540   0.2358853  )
        25           O   tau(  25) = (   0.2678038   1.2193540   1.4030846  )
        26           O   tau(  26) = (   0.2228185   0.9326842   0.0000000  )
        27           O   tau(  27) = (   0.0000000   0.9442076   0.8194850  )
        28           O   tau(  28) = (   0.0000000   0.6454170   1.0481535  )
        29           V   tau(  29) = (   0.5000000   0.2375368   1.0613593  )
        30           V   tau(  30) = (   0.7519083   0.3847660   1.3944181  )
        31           V   tau(  31) = (   0.7519083   0.3847660   0.2445518  )
        32           V   tau(  32) = (   0.5000000   0.2375368   0.5776106  )
        33           O   tau(  33) = (   0.7518641   0.3044025   1.1163983  )
        34           O   tau(  34) = (   0.5000000   0.3203417   1.3403825  )
        35           O   tau(  35) = (   0.5000000   0.3203417   0.2985874  )
        36           O   tau(  36) = (   0.7518641   0.3044025   0.5225717  )
        37           O   tau(  37) = (   0.5000000   0.0124490   0.5857329  )
        38           O   tau(  38) = (   0.7614617   0.6103710   0.2498001  )
        39           O   tau(  39) = (   0.7614617   0.6103710   1.3891698  )
        40           O   tau(  40) = (   0.7475899   0.3255632   0.0000000  )
        41           O   tau(  41) = (   0.5000000   0.3053542   0.8194850  )
        42           O   tau(  42) = (   0.5000000   0.0124490   1.0532370  )
        43           V   tau(  43) = (   0.5000000   0.8366627   1.1213083  )
        44           V   tau(  44) = (   0.7532189   0.9962590   1.3989413  )
        45           V   tau(  45) = (   0.7532189   0.9962590   0.2400286  )
        46           V   tau(  46) = (   0.5000000   0.8366627   0.5176616  )
        47           O   tau(  47) = (   0.7352652   0.9306349   1.1022737  )
        48           O   tau(  48) = (   0.5000000   0.8948797   1.3761592  )
        49           O   tau(  49) = (   0.5000000   0.8948797   0.2628107  )
        50           O   tau(  50) = (   0.7352652   0.9306349   0.5366963  )
        51           O   tau(  51) = (   0.5000000   0.6216600   0.5830825  )
        52           O   tau(  52) = (   0.7321962   1.2193540   0.2358853  )
        53           O   tau(  53) = (   0.7321962   1.2193540   1.4030846  )
        54           O   tau(  54) = (   0.7771815   0.9326842   0.0000000  )
        55           O   tau(  55) = (   0.5000000   0.6216600   1.0558874  )

     number of k points=     8  gaussian smearing, width (Ry)=  0.0500
                       cart. coord. in units 2pi/alat
        k(    1) = (   0.0000000   0.0000000   0.0000000), wk =   0.2500000
        k(    2) = (   0.0000000   0.0000000  -0.3050697), wk =   0.2500000
        k(    3) = (   0.0000000  -0.4046905   0.0000000), wk =   0.2500000
        k(    4) = (   0.0000000  -0.4046905  -0.3050697), wk =   0.2500000
        k(    5) = (  -0.5000000   0.0000000   0.0000000), wk =   0.2500000
        k(    6) = (  -0.5000000   0.0000000  -0.3050697), wk =   0.2500000
        k(    7) = (  -0.5000000  -0.4046905   0.0000000), wk =   0.2500000
        k(    8) = (  -0.5000000  -0.4046905  -0.3050697), wk =   0.2500000

     Check: negative core charge=   -0.000001

     Initial potential from superposition of free atoms

     starting charge  441.98541, renormalised to  442.00000
     Starting wfcs are  316 randomized atomic wfcs
     Checking if some PAW data can be deallocated...

     Self-consistent Calculation

     iteration #  1     ecut=    65.00 Ry     beta= 0.70
     Davidson diagonalization with overlap
     ethr =  1.00E-02,  avg # of iterations =  2.0

     total energy              =   -5032.15318906 Ry
     Harris-Foulkes estimate   =   -5058.22413959 Ry
     estimated scf accuracy    <      32.16546744 Ry

[...]

     negative rho (up, down):  1.087E-05 0.000E+00

[...]

     total energy              =   -5053.46693105 Ry
     Harris-Foulkes estimate   =   -5053.46693105 Ry
     estimated scf accuracy    <          2.5E-09 Ry

     iteration # 34     ecut=    65.00 Ry     beta= 0.70
     Davidson diagonalization with overlap
     ethr =  5.69E-13,  avg # of iterations =  5.6

[...]

     End of self-consistent calculation

          k = 0.0000 0.0000 0.0000 ( 43117 PWs)   bands (ev):

   -59.9700 -59.9700 -59.8289 -59.8271 -59.8267 -59.8249 -59.7303 -59.7278
   -59.6897 -59.6881 -59.6866 -59.6849 -59.6648 -59.6631 -59.6391 -59.6371
   -34.0622 -34.0609 -33.9227 -33.9203 -33.9130 -33.9105 -33.8621 -33.8575
   -33.8442 -33.8428 -33.8013 -33.7971 -33.7200 -33.7158 -33.7131 -33.7096
   -33.7071 -33.7026 -33.6965 -33.6932 -33.6760 -33.6727 -33.6589 -33.6558
   -33.6554 -33.6484 -33.6185 -33.6158 -33.6012 -33.5921 -33.5867 -33.5753
   -33.5555 -33.5521 -33.5444 -33.5424 -33.5242 -33.5201 -33.5124 -33.4959
   -33.4908 -33.4817 -33.4779 -33.4687 -33.4684 -33.4576 -33.4337 -33.4311
   -13.6595 -13.5679 -13.2438 -13.1258 -13.0190 -12.9630 -12.6705 -12.6475
   -12.6153 -12.4865 -12.4241 -12.3190 -12.3056 -12.2598 -12.2443 -12.1972
   -12.1556 -12.1423 -12.0862 -12.0169 -11.9791 -11.9167 -11.9132 -11.8337
   -11.8174 -11.7953 -11.7873 -11.7419 -11.7262 -11.6787 -11.6780 -11.5775
   -11.5578 -11.5545 -11.5469 -11.5133 -11.4824 -11.4672 -11.4401  -0.8575
    -0.7820  -0.6046  -0.4737  -0.3737  -0.3694  -0.3312  -0.2984  -0.2938
    -0.2192  -0.2081  -0.1470  -0.1405  -0.1029  -0.0930  -0.0775  -0.0690
    -0.0003   0.0502   0.0660   0.0780   0.2068   0.2166   0.2791   0.2904
     0.3800   0.4234   0.4492   0.5212   0.5340   0.6123   0.6851   0.6926
     0.7888   0.7946   0.8592   0.9585   1.0081   1.0114   1.0842   1.1098
     1.1120   1.2419   1.2704   1.2752   1.3465   1.3769   1.3984   1.3991
     1.4575   1.5314   1.6301   1.6421   1.6694   1.6825   1.7258   1.7470
     1.7829   1.8111   1.8189   1.9025   1.9277   1.9308   2.0108   2.0566
     2.0953   2.0977   2.1701   2.1939   2.2395   2.2850   2.3077   2.3337
     2.3449   2.3834   2.3846   2.4132   2.4642   2.4674   2.4806   2.4955
     2.5239   2.5939   2.6347   2.7550   2.7806   2.8374   2.8406   2.8652
     2.8744   2.9766   3.0055   3.0439   3.0653   3.0755   3.0795   3.1408
     3.1754   3.3047   3.3067   3.3207   3.3536   3.3542   3.3619   3.4071
     3.4422   3.4760   3.5205   3.7825   3.7932   3.8444   3.9110   3.9310
     3.9362   3.9854   4.0894   4.1162   5.7975   6.0175   6.1927   6.3274
     6.3656   6.5079   6.6021   6.6257   6.6718   6.9538   7.0012   7.0701
     7.3198   7.3210   7.3627   7.4778   7.4816   7.5341   7.5718   7.6090
     7.6179   7.6201   7.6726   7.6970   7.7291   7.8187   7.8272   7.8357
     7.8501   7.8571   7.9125   7.9441   7.9625   8.0436   8.0901   8.1915
     8.2474   8.2543   8.3460   8.3651   8.4633   8.4639   8.4649   8.4808
     8.5229

[...]

          k = 0.0000-0.4047-0.3051 ( 43112 PWs)   bands (ev):

[...]

          k =-0.5000 0.0000 0.0000 ( 43106 PWs)   bands (ev):

[...]

          k =-0.5000-0.4047-0.3051 ( 43072 PWs)   bands (ev):

   -59.9700 -59.9700 -59.8287 -59.8274 -59.8264 -59.8252 -59.7303 -59.7278
   -59.6884 -59.6879 -59.6868 -59.6862 -59.6647 -59.6631 -59.6391 -59.6372
   -34.0615 -34.0608 -33.9245 -33.9222 -33.9089 -33.9066 -33.8627 -33.8583
   -33.8408 -33.8402 -33.8003 -33.7978 -33.7138 -33.7129 -33.7125 -33.7110
   -33.7103 -33.7065 -33.6954 -33.6939 -33.6774 -33.6595 -33.6582 -33.6571
   -33.6567 -33.6480 -33.6321 -33.6294 -33.5919 -33.5813 -33.5805 -33.5710
   -33.5624 -33.5453 -33.5280 -33.5272 -33.5252 -33.5251 -33.5237 -33.5214
   -33.4845 -33.4811 -33.4726 -33.4683 -33.4662 -33.4563 -33.4489 -33.4473
   -13.4134 -13.3625 -13.2123 -13.2028 -12.8542 -12.8539 -12.8534 -12.8489
   -12.7531 -12.7476 -12.4483 -12.4449 -12.3811 -12.3407 -12.2694 -12.0444
   -12.0283 -12.0238 -12.0070 -11.9848 -11.9832 -11.9712 -11.9705 -11.8198
   -11.8076 -11.7807 -11.7753 -11.7505 -11.7404 -11.6895 -11.6717 -11.5655
   -11.5604 -11.5572 -11.5519 -11.5141 -11.5066 -11.4694 -11.4471  -0.8195
    -0.8121  -0.7294  -0.7244  -0.5460  -0.5459  -0.5280  -0.5204  -0.2970
    -0.1312  -0.1197  -0.0973  -0.0664  -0.0479   0.0867   0.1016   0.1111
     0.1185   0.1553   0.2332   0.2334   0.2357   0.2493   0.2633   0.3411
     0.4217   0.4514   0.4685   0.5019   0.5158   0.5848   0.7030   0.7695
     0.7807   0.7839   0.8452   0.8677   0.8679   0.9551   0.9913   0.9962
     1.0435   1.0464   1.1385   1.1661   1.2304   1.2515   1.3509   1.3631
     1.4582   1.5122   1.5577   1.6313   1.6795   1.7159   1.7775   1.8002
     1.9392   1.9788   2.0030   2.0138   2.0560   2.0683   2.0834   2.0997
     2.1207   2.1406   2.1828   2.1919   2.2047   2.2171   2.2172   2.2189
     2.3125   2.3675   2.3718   2.3949   2.4108   2.4332   2.4554   2.5697
     2.6183   2.6351   2.7412   2.7432   2.7678   2.7694   2.8070   2.8376
     2.9440   3.0460   3.0870   3.0916   3.0985   3.1431   3.1663   3.2085
     3.2411   3.2517   3.3286   3.3494   3.4428   3.4596   3.4735   3.5297
     3.6581   3.6632   3.6686   3.6929   3.7777   3.7917   3.7981   3.8183
     3.9390   3.9416   3.9518   3.9563   6.1213   6.2109   6.2826   6.4937
     6.5474   6.5574   6.5584   6.6095   6.6720   6.6910   7.0313   7.1912
     7.3605   7.3658   7.4722   7.4744   7.4989   7.5089   7.5488   7.5600
     7.5665   7.6276   7.6375   7.6898   7.6908   7.6976   7.7208   7.7310
     7.7398   7.7766   7.8693   7.9018   7.9050   7.9208   7.9819   7.9989
     8.0017   8.0287   8.0871   8.0923   8.1309   8.1420   8.1483   8.2040
     8.2092

     the Fermi energy is     5.7268 ev

!    total energy              =   -5053.46693105 Ry
     Harris-Foulkes estimate   =   -5053.46693105 Ry
     estimated scf accuracy    <          9.5E-10 Ry

     total all-electron energy =    -36252.035710 Ry

     The total energy is the sum of the following terms:

     one-electron contribution =   -2354.87019377 Ry
     hartree contribution      =    1348.20970871 Ry
     xc contribution           =    -612.39238740 Ry
     ewald contribution        =   -1941.86591062 Ry
     Dispersion Correction     =      -0.51389577 Ry
     one-center paw contrib.   =   -1491.92754278 Ry
     smearing contrib. (-TS)   =      -0.10670943 Ry

     convergence has been achieved in  34 iterations

     negative rho (up, down):  2.650E-03 0.000E+00

     Forces acting on atoms (cartesian axes, Ry/au):

     atom    1 type  1   force =     0.00000000   -0.00007091   -0.00002450
     atom    2 type  1   force =    -0.00000160    0.00001945    0.00000110
     atom    3 type  1   force =    -0.00000160    0.00001945   -0.00000110
     atom    4 type  1   force =     0.00000000   -0.00007091    0.00002450
     atom    5 type  2   force =    -0.00000766    0.00002726    0.00001665
     atom    6 type  2   force =     0.00000000    0.00000061   -0.00008361
     atom    7 type  2   force =     0.00000000    0.00000061    0.00008361
     atom    8 type  2   force =    -0.00000766    0.00002726   -0.00001665
     atom    9 type  2   force =     0.00000000    0.00002355    0.00004604
     atom   10 type  2   force =    -0.00000143    0.00001289   -0.00002880
     atom   11 type  2   force =    -0.00000143    0.00001289    0.00002880
     atom   12 type  2   force =    -0.00000485   -0.00003420    0.00000000
     atom   13 type  2   force =     0.00000000    0.00009005    0.00000000
     atom   14 type  2   force =     0.00000000    0.00002355   -0.00004604
     atom   15 type  1   force =     0.00000000    0.00003597    0.00001918
     atom   16 type  1   force =     0.00004551    0.00001007    0.00001817
     atom   17 type  1   force =     0.00004551    0.00001007   -0.00001817
     atom   18 type  1   force =     0.00000000    0.00003597   -0.00001918
     atom   19 type  2   force =    -0.00000343   -0.00006010    0.00005790
     atom   20 type  2   force =     0.00000000   -0.00007073   -0.00003253
     atom   21 type  2   force =     0.00000000   -0.00007073    0.00003253
     atom   22 type  2   force =    -0.00000343   -0.00006010   -0.00005790
     atom   23 type  2   force =     0.00000000   -0.00005437    0.00004198
     atom   24 type  2   force =     0.00002159    0.00006802    0.00003958
     atom   25 type  2   force =     0.00002159    0.00006802   -0.00003958
     atom   26 type  2   force =    -0.00009242    0.00000013    0.00000000
     atom   27 type  2   force =     0.00000000    0.00003416    0.00000000
     atom   28 type  2   force =     0.00000000   -0.00005437   -0.00004198
     atom   29 type  1   force =     0.00000000    0.00001237    0.00000146
     atom   30 type  1   force =     0.00000160    0.00001945    0.00000110
     atom   31 type  1   force =     0.00000160    0.00001945   -0.00000110
     atom   32 type  1   force =     0.00000000    0.00001237   -0.00000146
     atom   33 type  2   force =     0.00000766    0.00002726    0.00001665
     atom   34 type  2   force =     0.00000000   -0.00007502   -0.00002344
     atom   35 type  2   force =     0.00000000   -0.00007502    0.00002344
     atom   36 type  2   force =     0.00000766    0.00002726   -0.00001665
     atom   37 type  2   force =     0.00000000    0.00004599   -0.00003787
     atom   38 type  2   force =     0.00000143    0.00001289   -0.00002880
     atom   39 type  2   force =     0.00000143    0.00001289    0.00002880
     atom   40 type  2   force =     0.00000485   -0.00003420    0.00000000
     atom   41 type  2   force =     0.00000000    0.00003926    0.00000000
     atom   42 type  2   force =     0.00000000    0.00004599    0.00003787
     atom   43 type  1   force =     0.00000000    0.00005968   -0.00004115
     atom   44 type  1   force =    -0.00004551    0.00001007    0.00001817
     atom   45 type  1   force =    -0.00004551    0.00001007   -0.00001817
     atom   46 type  1   force =     0.00000000    0.00005968    0.00004115
     atom   47 type  2   force =     0.00000343   -0.00006010    0.00005790
     atom   48 type  2   force =     0.00000000   -0.00007353    0.00002980
     atom   49 type  2   force =     0.00000000   -0.00007353   -0.00002980
     atom   50 type  2   force =     0.00000343   -0.00006010   -0.00005790
     atom   51 type  2   force =     0.00000000   -0.00003645    0.00000368
     atom   52 type  2   force =    -0.00002159    0.00006802    0.00003958
     atom   53 type  2   force =    -0.00002159    0.00006802   -0.00003958
     atom   54 type  2   force =     0.00009242    0.00000013    0.00000000
     atom   55 type  2   force =     0.00000000   -0.00003645   -0.00000368

     Total force =     0.000454     Total SCF correction =     0.000110
     SCF correction compared to forces is large: reduce conv_thr to get better values

     BFGS Geometry Optimization

     bfgs converged in   1 scf cycles and   0 bfgs steps
     (criteria: energy <  1.0E-04 Ry, force <  1.0E-04 Ry/Bohr)

     End of BFGS Geometry Optimization

     Final energy   =   -5053.4669310516 Ry
Begin final coordinates

ATOMIC_POSITIONS (angstrom)
V        0.000000000   1.629042173   7.540579196
V        1.758795332   2.727720029   9.885442588
V        1.758795332   2.727720029   1.733700173
V        0.000000000   1.629042173   4.078563554
O        1.759108866   2.157999730   7.914477579
O        0.000000000   2.159236582   9.538934961
O        0.000000000   2.159236582   2.080207801
O        1.759108866   2.157999730   3.704665171
O        0.000000000   0.031410801   4.050733400
O        1.691068626   4.327100882   1.770907010
O        1.691068626   4.327100882   9.848235752
O        1.789409998   2.308013907   0.000000000
O        0.000000000   2.063177270   5.809571380
O        0.000000000   0.031410801   7.568409371
V        0.000000000   6.163086766   7.495053625
V        1.749504306   7.062775058   9.917509164
V        1.749504306   7.062775058   1.701633598
V        0.000000000   6.163086766   4.124089124
O        1.876783670   6.597545842   7.814344144
O        0.000000000   6.662884689   9.423746645
O        0.000000000   6.662884689   2.195396116
O        1.876783670   6.597545842   3.804798606
O        0.000000000   4.575551894   4.188472101
O        1.898540658   8.644361621   1.672260731
O        1.898540658   8.644361621   9.946882029
O        1.579626438   6.612074285   0.000000000
O        0.000000000   6.693766998   5.809571380
O        0.000000000   4.575551894   7.430670671
V        3.544647955   1.683968581   7.524290177
V        5.330500593   2.727720029   9.885442588
V        5.330500593   2.727720029   1.733700173
V        3.544647955   1.683968581   4.094852572
O        5.330187058   2.157999730   7.914477579
O        3.544647955   2.270997373   9.502368441
O        3.544647955   2.270997373   2.116774321
O        5.330187058   2.157999730   3.704665171
O        3.544647955   0.088254370   4.152434181
O        5.398227298   4.327100882   1.770907010
O        5.398227298   4.327100882   9.848235752
O        5.299885924   2.308013907   0.000000000
O        3.544647955   2.164746140   5.809571380
O        3.544647955   0.088254370   7.466708591
V        3.544647955   5.931349217   7.949286181
V        5.339791618   7.062775058   9.917509164
V        5.339791618   7.062775058   1.701633598
V        3.544647955   5.931349217   3.669856568
O        5.212512253   6.597545842   7.814344144
O        3.544647955   6.344067309   9.756000009
O        3.544647955   6.344067309   1.863142753
O        5.212512253   6.597545842   3.804798606
O        3.544647955   4.407131430   4.133644356
O        5.190755266   8.644361621   1.672260731
O        5.190755266   8.644361621   9.946882029
O        5.509669485   6.612074285   0.000000000
O        3.544647955   4.407131430   7.485498416
End final coordinates

     Writing output data file v16o39.save/

     General routines

     Parallel routines

   This run was terminated on:  23:21:26  11Jun2024

   JOB DONE.