     Program PWSCF v.6.4.1 starts on 19Oct2024 at 18:56:27

     R & G space division:  proc/nbgrp/npool/nimage =      32
     Reading input from v16o40.rlx.in
Warning: card &CELL ignored
Warning: card     CELL_DYNAMICS  = "BFGS" ignored
Warning: card / ignored

     Current dimensions of program PWSCF are:
     Max number of different atomic species (ntypx) = 10
     Max number of k-points (npk) =  40000
     Max angular momentum in pseudopotentials (lmaxx) =  3

     IMPORTANT: XC functional enforced from input :
     Exchange-correlation      = VDW-DF ( 1  4  4  0 1 0)
     Any further DFT definition will be discarded
     Please, verify this is what you really want

               file V.pbesol-spnl-kjpaw_psl.1.0.0.UPF: wavefunction(s)  3P 3D renormalized
               file O.pbesol-n-kjpaw_psl.1.0.0.UPF: wavefunction(s)  2S 2P renormalized

     Subspace diagonalization in iterative solution of the eigenvalue problem:
     one sub-group per band group will be used

     Found symmetry operation: I + (  0.5000  0.0000  0.0000)
     This is a supercell, fractional translations are disabled
     Message from routine setup:
     DEPRECATED: symmetry with ibrav=0, use correct ibrav instead

     bravais-lattice index     =            0
     lattice parameter (alat)  =      13.6262  a.u.
     unit-cell volume          =    4790.1372 (a.u.)^3
     number of atoms/cell      =           56
     number of atomic types    =            2
     number of electrons       =       448.00
     number of Kohn-Sham states=          269
     kinetic-energy cutoff     =      40.0000  Ry
     charge density cutoff     =     400.0000  Ry
     convergence threshold     =      1.0E-06
     mixing beta               =       0.4000
     number of iterations used =            8  plain     mixing
     Exchange-correlation      = VDW-DF ( 1  4  4  0 1 0)
     nstep                     =          500

     celldm(1)=  13.626204  celldm(2)=   0.000000  celldm(3)=   0.000000
     celldm(4)=   0.000000  celldm(5)=   0.000000  celldm(6)=   0.000000

     crystal axes: (cart. coord. in units of alat)
               a(1) = (   1.000000   0.000000   0.000000 )
               a(2) = (   0.000000   1.353546   0.000000 )
               a(3) = (   0.000000   0.000000   1.398783 )

     reciprocal axes: (cart. coord. in units 2 pi/alat)
               b(1) = (  1.000000  0.000000  0.000000 )
               b(2) = (  0.000000  0.738800  0.000000 )
               b(3) = (  0.000000  0.000000  0.714907 )

     PseudoPot. # 1 for V  read from file:
     /home/mpicuntureo/pseudos/V.pbesol-spnl-kjpaw_psl.1.0.0.UPF
     MD5 check sum: d709b3179d4cab0f72010db8785d50db
     Pseudo is Projector augmented-wave + core cor, Zval = 13.0
     Generated using "atomic" code by A. Dal Corso v.6.3
     Shape of augmentation charge: PSQ
     Using radial grid of 1181 points,  6 beta functions with:
                l(1) =   0
                l(2) =   0
                l(3) =   1
                l(4) =   1
                l(5) =   2
                l(6) =   2
     Q(r) pseudized with 0 coefficients

     PseudoPot. # 2 for O  read from file:
     /home/mpicuntureo/pseudos/O.pbesol-n-kjpaw_psl.1.0.0.UPF
     MD5 check sum: cb766521a97cf798d01896eaf7ac9a0a
     Pseudo is Projector augmented-wave + core cor, Zval =  6.0
     Generated using "atomic" code by A. Dal Corso v.6.3
     Shape of augmentation charge: PSQ
     Using radial grid of 1095 points,  4 beta functions with:
                l(1) =   0
                l(2) =   0
                l(3) =   1
                l(4) =   1
     Q(r) pseudized with 0 coefficients

     vdW kernel table read from file vdW_kernel_table
     MD5 check sum: 8c4337f4b28e1601c069d7ef7b6561bc

     atomic species   valence    mass     pseudopotential
        V             13.00    50.94150     V ( 1.00)
        O              6.00    15.99940     O ( 1.00)

      2 Sym. Ops., with inversion, found

   Cartesian axes

     site n.     atom                  positions (alat units)
         1           V   tau(   1) = (   0.1250000   1.1799066  -0.0230308  )
         2           V   tau(   2) = (   0.3750000   0.1736394   1.4218137  )
         3           V   tau(   3) = (   0.3750000   0.8504123   0.6763606  )
         4           V   tau(   4) = (   0.1250000   0.5031336   0.7224223  )
         5           V   tau(   5) = (   0.1250000   0.7628632   1.2451682  )
         6           V   tau(   6) = (   0.3750000   0.5906827   0.1536147  )
         7           V   tau(   7) = (   0.3750000   1.2674557   0.5457767  )
         8           V   tau(   8) = (   0.1250000   0.0860903   0.8530062  )
         9           O   tau(   9) = (   0.1250000   1.0044151   1.1936654  )
        10           O   tau(  10) = (   0.3750000   0.3491309   0.2051175  )
        11           O   tau(  11) = (   0.3750000   1.0259038   0.4942739  )
        12           O   tau(  12) = (   0.1250000   0.3276421   0.9045090  )
        13           O   tau(  13) = (   0.1250000   1.3360801   1.0514365  )
        14           O   tau(  14) = (   0.3750000   0.0174659   0.3473464  )
        15           O   tau(  15) = (   0.3750000   0.6942389   0.3520450  )
        16           O   tau(  16) = (   0.1250000   0.6593071   1.0467378  )
        17           O   tau(  17) = (   0.1250000   1.0545013   0.1621290  )
        18           O   tau(  18) = (   0.3750000   0.2990447   1.2366539  )
        19           O   tau(  19) = (   0.3750000   0.9758176   0.8615204  )
        20           O   tau(  20) = (   0.1250000   0.3777283   0.5372625  )
        21           O   tau(  21) = (   0.1250000   0.0996943   0.0523127  )
        22           O   tau(  22) = (   0.3750000   1.2538517   1.3464702  )
        23           O   tau(  23) = (   0.3750000   0.5770787   0.7517041  )
        24           O   tau(  24) = (   0.1250000   0.7764672   0.6470788  )
        25           O   tau(  25) = (   0.1250000   1.2695330   0.6308963  )
        26           O   tau(  26) = (   0.3750000   0.0840130   0.7678866  )
        27           O   tau(  27) = (   0.3750000   0.7607859   1.3302877  )
        28           O   tau(  28) = (   0.1250000   0.5927600   0.0684952  )
        29           V   tau(  29) = (   0.6250000   1.1799066  -0.0230308  )
        30           V   tau(  30) = (   0.8750000   0.1736394   1.4218137  )
        31           V   tau(  31) = (   0.8750000   0.8504123   0.6763606  )
        32           V   tau(  32) = (   0.6250000   0.5031336   0.7224223  )
        33           V   tau(  33) = (   0.6250000   0.7628632   1.2451682  )
        34           V   tau(  34) = (   0.8750000   0.5906827   0.1536147  )
        35           V   tau(  35) = (   0.8750000   1.2674557   0.5457767  )
        36           V   tau(  36) = (   0.6250000   0.0860903   0.8530062  )
        37           O   tau(  37) = (   0.6250000   1.0044151   1.1936654  )
        38           O   tau(  38) = (   0.8750000   0.3491309   0.2051175  )
        39           O   tau(  39) = (   0.8750000   1.0259038   0.4942739  )
        40           O   tau(  40) = (   0.6250000   0.3276421   0.9045090  )
        41           O   tau(  41) = (   0.6250000   1.3360801   1.0514365  )
        42           O   tau(  42) = (   0.8750000   0.0174659   0.3473464  )
        43           O   tau(  43) = (   0.8750000   0.6942389   0.3520450  )
        44           O   tau(  44) = (   0.6250000   0.6593071   1.0467378  )
        45           O   tau(  45) = (   0.6250000   1.0545013   0.1621290  )
        46           O   tau(  46) = (   0.8750000   0.2990447   1.2366539  )
        47           O   tau(  47) = (   0.8750000   0.9758176   0.8615204  )
        48           O   tau(  48) = (   0.6250000   0.3777283   0.5372625  )
        49           O   tau(  49) = (   0.6250000   0.0996943   0.0523127  )
        50           O   tau(  50) = (   0.8750000   1.2538517   1.3464702  )
        51           O   tau(  51) = (   0.8750000   0.5770787   0.7517041  )
        52           O   tau(  52) = (   0.6250000   0.7764672   0.6470788  )
        53           O   tau(  53) = (   0.6250000   1.2695330   0.6308963  )
        54           O   tau(  54) = (   0.8750000   0.0840130   0.7678866  )
        55           O   tau(  55) = (   0.8750000   0.7607859   1.3302877  )
        56           O   tau(  56) = (   0.6250000   0.5927600   0.0684952  )

     number of k points=     8  gaussian smearing, width (Ry)=  0.1000
                       cart. coord. in units 2pi/alat
        k(    1) = (   0.0000000   0.0000000   0.0000000), wk =   0.2500000
        k(    2) = (   0.0000000   0.0000000  -0.3574536), wk =   0.2500000
        k(    3) = (   0.0000000  -0.3694001   0.0000000), wk =   0.2500000
        k(    4) = (   0.0000000  -0.3694001  -0.3574536), wk =   0.2500000
        k(    5) = (  -0.5000000   0.0000000   0.0000000), wk =   0.2500000
        k(    6) = (  -0.5000000   0.0000000  -0.3574536), wk =   0.2500000
        k(    7) = (  -0.5000000  -0.3694001   0.0000000), wk =   0.2500000
        k(    8) = (  -0.5000000  -0.3694001  -0.3574536), wk =   0.2500000

     Check: negative core charge=   -0.000007

     Initial potential from superposition of free atoms

     starting charge  447.98644, renormalised to  448.00000

     %%%%%%%%%%%%%%%%%%%%%%%%%%%%%%%%%%%%%%%%%%%%%%%%%%%%%%%%%%%%%%%%%%%%%%%%
     %                                                                      %
     % You are using vdW-DF, which was implemented by the Thonhauser group. %
     % Please cite the following two papers that made this development      %
     % possible and the two reviews that describe the various versions:     %
     %                                                                      %
     %   T. Thonhauser et al., PRL 115, 136402 (2015).                      %
     %   T. Thonhauser et al., PRB 76, 125112 (2007).                       %
     %   K. Berland et al., Rep. Prog. Phys. 78, 066501 (2015).             %
     %   D.C. Langreth et al., J. Phys.: Condens. Matter 21, 084203 (2009). %
     %                                                                      %
     %                                                                      %
     % If you are calculating the stress with vdW-DF, please also cite:     %
     %                                                                      %
     %   R. Sabatini et al., J. Phys.: Condens. Matter 24, 424209 (2012).   %
     %                                                                      %
     %%%%%%%%%%%%%%%%%%%%%%%%%%%%%%%%%%%%%%%%%%%%%%%%%%%%%%%%%%%%%%%%%%%%%%%%

     Starting wfcs are  320 randomized atomic wfcs
     Checking if some PAW data can be deallocated...

     Self-consistent Calculation

     iteration #  1     ecut=    40.00 Ry     beta= 0.40
     Davidson diagonalization with overlap
     ethr =  1.00E-02,  avg # of iterations =  2.0

     total energy              =   -5128.79071774 Ry
     Harris-Foulkes estimate   =   -5151.67497357 Ry
     estimated scf accuracy    <      39.90246585 Ry

[...]

     negative rho (up, down):  1.165E-04 0.000E+00

[...]

     total energy              =   -5145.76700856 Ry
     Harris-Foulkes estimate   =   -5145.76700880 Ry
     estimated scf accuracy    <       0.00000331 Ry

     iteration # 24     ecut=    40.00 Ry     beta= 0.40
     Davidson diagonalization with overlap
     ethr =  3.31E-10,  avg # of iterations =  2.6

[...]

     End of self-consistent calculation

          k = 0.0000 0.0000 0.0000 ( 20421 PWs)   bands (ev):

   -59.7540 -59.7537 -59.7472 -59.7471 -59.7466 -59.7466 -59.7464 -59.7463
   -59.7428 -59.7425 -59.7396 -59.7396 -59.7396 -59.7396 -59.7357 -59.7356
   -33.7564 -33.7536 -33.7390 -33.7390 -33.7374 -33.7374 -33.7297 -33.7283
   -33.7243 -33.7221 -33.7076 -33.7076 -33.7055 -33.7055 -33.6989 -33.6970
   -33.6245 -33.6237 -33.6192 -33.6192 -33.6185 -33.6185 -33.5742 -33.5742
   -33.5731 -33.5731 -33.5605 -33.5599 -33.5468 -33.5464 -33.5290 -33.5290
   -33.5286 -33.5286 -33.5245 -33.5239 -33.5160 -33.5153 -33.4928 -33.4928
   -33.4915 -33.4915 -33.4897 -33.4894 -33.4882 -33.4870 -33.4795 -33.4788
   -13.4098 -13.3331 -13.1900 -13.1446 -12.4694 -12.4694 -12.4146 -12.4146
   -12.3794 -12.3446 -12.2779 -12.2779 -12.2664 -12.2664 -12.2222 -12.1978
   -12.1335 -12.1251 -12.1089 -12.0678 -12.0567 -12.0567 -12.0330 -12.0330
   -11.6234 -11.6094 -11.5942 -11.5942 -11.5862 -11.5829 -11.5330 -11.5330
   -11.5005 -11.4872 -11.4841 -11.4795 -11.4795 -11.4654 -11.4654 -11.4216
    -0.3104  -0.3104  -0.3075  -0.3075  -0.1657  -0.1574  -0.0444  -0.0444
    -0.0363  -0.0363   0.0558   0.0629   0.0764   0.0907   0.1723   0.2048
     0.2319   0.2426   0.4795   0.4947   0.4948   0.5083   0.5083   0.5978
     0.6367   0.6689   0.7740   0.7740   0.8180   0.8180   0.9284   0.9284
     1.0307   1.0321   1.0321   1.0683   1.1615   1.1928   1.1928   1.2026
     1.2026   1.2590   1.3944   1.3944   1.3991   1.6081   1.6164   1.6164
     1.6941   1.7023   1.7605   1.7606   1.8026   1.8470   1.8470   1.8471
     1.9419   1.9567   2.0634   2.0634   2.0820   2.2715   2.3037   2.3037
     2.3111   2.3147   2.3410   2.4418   2.4418   2.4587   2.5027   2.5027
     2.5159   2.5168   2.5995   2.5995   2.6190   2.6423   2.6604   2.6677
     2.7249   2.7900   2.8194   2.8507   2.8507   2.9005   2.9547   2.9547
     3.0138   3.0284   3.1022   3.1757   3.1870   3.2398   3.2398   3.2626
     3.3292   3.3584   3.3914   3.3948   3.4135   3.4135   3.4218   3.4218
     3.4373   3.4459   3.5127   3.6063   3.6116   3.7028   3.8465   3.8465
     3.8974   3.8974   4.0181   4.0181   4.0296   4.0657   4.0657   4.1034
     6.2017   6.2552   6.2870   6.3886   6.6820   6.6820   6.7710   6.7710
     7.2383   7.2383   7.3544   7.3641   7.3641   7.4519   7.4801   7.5128
     7.6764   7.7137   7.7509   7.8037   7.8152   7.8152   7.8520   7.8520
     7.8961   7.8961   7.9103   7.9926   7.9926   8.0793   8.3153   8.3153
     8.3433   8.3678   8.3678   8.4314   8.4314   8.4339   8.5250   8.5250
     8.5482   8.6010   8.6316   8.6647   8.7012

[...]

          k = 0.0000-0.3694-0.3575 ( 20464 PWs)   bands (ev):

[...]

          k =-0.5000 0.0000 0.0000 ( 20504 PWs)   bands (ev):

[...]

          k =-0.5000-0.3694-0.3575 ( 20448 PWs)   bands (ev):

   -59.7509 -59.7506 -59.7506 -59.7504 -59.7473 -59.7473 -59.7472 -59.7471
   -59.7409 -59.7408 -59.7406 -59.7406 -59.7373 -59.7372 -59.7372 -59.7370
   -33.7477 -33.7475 -33.7474 -33.7473 -33.7387 -33.7386 -33.7385 -33.7385
   -33.7123 -33.7123 -33.7122 -33.7121 -33.6993 -33.6991 -33.6991 -33.6990
   -33.6136 -33.6134 -33.6133 -33.6133 -33.6014 -33.6014 -33.6013 -33.6012
   -33.5570 -33.5569 -33.5568 -33.5567 -33.5521 -33.5520 -33.5520 -33.5519
   -33.5110 -33.5110 -33.5109 -33.5108 -33.5102 -33.5100 -33.5100 -33.5099
   -33.4922 -33.4921 -33.4921 -33.4920 -33.4914 -33.4914 -33.4914 -33.4913
   -13.0069 -13.0068 -13.0067 -13.0067 -12.8976 -12.8975 -12.8974 -12.8974
   -12.1698 -12.1698 -12.1697 -12.1697 -12.1437 -12.1437 -12.1436 -12.1434
   -12.1168 -12.1168 -12.1167 -12.1165 -12.1023 -12.1022 -12.1021 -12.1021
   -11.5862 -11.5861 -11.5861 -11.5860 -11.5581 -11.5580 -11.5579 -11.5579
   -11.5001 -11.5001 -11.4996 -11.4996 -11.4615 -11.4615 -11.4611 -11.4611
    -0.5243  -0.5242  -0.5242  -0.5242  -0.4489  -0.4488  -0.4488  -0.4488
     0.2623   0.2623   0.2626   0.2626   0.3423   0.3424   0.3424   0.3424
     0.4576   0.4576   0.4577   0.4577   0.5204   0.5204   0.5205   0.5206
     0.6830   0.6830   0.6832   0.6832   0.8381   0.8381   0.8382   0.8382
     1.0531   1.0532   1.0532   1.0532   1.0657   1.0657   1.0657   1.0657
     1.4936   1.4936   1.4937   1.4937   1.5033   1.5034   1.5035   1.5035
     1.7623   1.7624   1.7626   1.7626   2.0186   2.0186   2.0186   2.0186
     2.0831   2.0831   2.0833   2.0833   2.1959   2.1960   2.1961   2.1961
     2.4367   2.4367   2.4369   2.4369   2.4450   2.4450   2.4453   2.4453
     2.4964   2.4964   2.4966   2.4966   2.5450   2.5450   2.5451   2.5451
     2.7941   2.7941   2.7943   2.7943   2.8437   2.8437   2.8438   2.8438
     3.1288   3.1289   3.1290   3.1290   3.1402   3.1402   3.1403   3.1403
     3.5004   3.5004   3.5005   3.5005   3.5008   3.5008   3.5009   3.5009
     3.6990   3.6991   3.6992   3.6992   3.7961   3.7962   3.7963   3.7963
     3.9159   3.9159   3.9159   3.9159   4.0333   4.0333   4.0334   4.0334
     6.5317   6.5317   6.5318   6.5318   6.5508   6.5509   6.5509   6.5510
     7.4014   7.4014   7.4015   7.4015   7.4309   7.4309   7.4310   7.4310
     7.6831   7.6832   7.6832   7.6832   7.7072   7.7073   7.7074   7.7074
     7.8966   7.8967   7.8967   7.8967   7.9339   7.9340   7.9340   7.9340
     8.0433   8.0433   8.0434   8.0434   8.1606   8.1607   8.1607   8.1608
     8.2622   8.2622   8.2624   8.2624   8.5394

     the Fermi energy is     5.3862 ev

!    total energy              =   -5145.76700866 Ry
     Harris-Foulkes estimate   =   -5145.76700886 Ry
     estimated scf accuracy    <       0.00000026 Ry

     total all-electron energy =    -36454.326748 Ry

     The total energy is the sum of the following terms:

     one-electron contribution =   -2194.24106080 Ry
     hartree contribution      =    1279.28937344 Ry
     xc contribution           =    -634.94743631 Ry
     ewald contribution        =   -2056.94759470 Ry
     one-center paw contrib.   =   -1538.22934408 Ry
     smearing contrib. (-TS)   =      -0.69094621 Ry

     convergence has been achieved in  24 iterations

     negative rho (up, down):  1.977E-03 0.000E+00

     Forces acting on atoms (cartesian axes, Ry/au):

     atom    1 type  1   force =    -0.00004275   -0.00205133   -0.00118202
     atom    2 type  1   force =     0.00005767    0.00207587    0.00120444
     atom    3 type  1   force =     0.00004959    0.00210545   -0.00089913
     atom    4 type  1   force =    -0.00003984   -0.00210828    0.00088521
     atom    5 type  1   force =    -0.00006790    0.00009287   -0.00064407
     atom    6 type  1   force =     0.00005331   -0.00010313    0.00067773
     atom    7 type  1   force =     0.00005145   -0.00001488   -0.00046297
     atom    8 type  1   force =    -0.00005645    0.00001523    0.00045813
     atom    9 type  2   force =    -0.00000979    0.00039005   -0.00043428
     atom   10 type  2   force =     0.00000773   -0.00039193    0.00044786
     atom   11 type  2   force =     0.00000953   -0.00036039   -0.00044904
     atom   12 type  2   force =    -0.00000717    0.00035871    0.00045514
     atom   13 type  2   force =    -0.00000832   -0.00087157    0.00074375
     atom   14 type  2   force =     0.00000773    0.00087431   -0.00075504
     atom   15 type  2   force =     0.00000919    0.00088620    0.00076544
     atom   16 type  2   force =    -0.00000733   -0.00088331   -0.00075900
     atom   17 type  2   force =    -0.00001776   -0.00097092    0.00016285
     atom   18 type  2   force =     0.00001167    0.00097767   -0.00016479
     atom   19 type  2   force =     0.00001275    0.00102678    0.00025171
     atom   20 type  2   force =    -0.00001826   -0.00102808   -0.00025154
     atom   21 type  2   force =    -0.00000934   -0.00171039   -0.00000750
     atom   22 type  2   force =    -0.00001510    0.00170172   -0.00000335
     atom   23 type  2   force =    -0.00000235    0.00170888   -0.00001840
     atom   24 type  2   force =     0.00000056   -0.00170956    0.00002081
     atom   25 type  2   force =     0.00000889    0.00003528    0.00228824
     atom   26 type  2   force =     0.00000324   -0.00003768   -0.00228774
     atom   27 type  2   force =    -0.00000453   -0.00002934    0.00225562
     atom   28 type  2   force =     0.00000177    0.00002584   -0.00225405
     atom   29 type  1   force =    -0.00005767   -0.00207587   -0.00120444
     atom   30 type  1   force =     0.00004275    0.00205133    0.00118202
     atom   31 type  1   force =     0.00003984    0.00210828   -0.00088521
     atom   32 type  1   force =    -0.00004959   -0.00210545    0.00089913
     atom   33 type  1   force =    -0.00005331    0.00010313   -0.00067773
     atom   34 type  1   force =     0.00006790   -0.00009287    0.00064407
     atom   35 type  1   force =     0.00005645   -0.00001523   -0.00045813
     atom   36 type  1   force =    -0.00005145    0.00001488    0.00046297
     atom   37 type  2   force =    -0.00000773    0.00039193   -0.00044786
     atom   38 type  2   force =     0.00000979   -0.00039005    0.00043428
     atom   39 type  2   force =     0.00000717   -0.00035871   -0.00045514
     atom   40 type  2   force =    -0.00000953    0.00036039    0.00044904
     atom   41 type  2   force =    -0.00000773   -0.00087431    0.00075504
     atom   42 type  2   force =     0.00000832    0.00087157   -0.00074375
     atom   43 type  2   force =     0.00000733    0.00088331    0.00075900
     atom   44 type  2   force =    -0.00000919   -0.00088620   -0.00076544
     atom   45 type  2   force =    -0.00001167   -0.00097767    0.00016479
     atom   46 type  2   force =     0.00001776    0.00097092   -0.00016285
     atom   47 type  2   force =     0.00001826    0.00102808    0.00025154
     atom   48 type  2   force =    -0.00001275   -0.00102678   -0.00025171
     atom   49 type  2   force =     0.00001510   -0.00170172    0.00000335
     atom   50 type  2   force =     0.00000934    0.00171039    0.00000750
     atom   51 type  2   force =    -0.00000056    0.00170956   -0.00002081
     atom   52 type  2   force =     0.00000235   -0.00170888    0.00001840
     atom   53 type  2   force =    -0.00000324    0.00003768    0.00228774
     atom   54 type  2   force =    -0.00000889   -0.00003528   -0.00228824
     atom   55 type  2   force =    -0.00000177   -0.00002584    0.00225405
     atom   56 type  2   force =     0.00000453    0.00002934   -0.00225562

     Total force =     0.011525     Total SCF correction =     0.001924
     SCF correction compared to forces is large: reduce conv_thr to get better values

     BFGS Geometry Optimization

     bfgs converged in   1 scf cycles and   0 bfgs steps
     (criteria: energy <  1.0E-04 Ry, force <  1.0E-02 Ry/Bohr)

     End of BFGS Geometry Optimization

     Final energy   =   -5145.7670086616 Ry
Begin final coordinates

ATOMIC_POSITIONS (angstrom)
V        0.901334570   8.507924730  -0.166067730
V        2.704003710   1.252057220  10.252238680
V        2.704003710   6.132048190   4.877017750
V        0.901334570   3.627933760   5.209153200
V        0.901334570   5.500759920   8.978505000
V        2.704003710   4.259222020   1.107665960
V        2.704003710   9.139213000   3.935419520
V        0.901334570   0.620768950   6.150751440
O        0.901334570   7.242512170   8.607134970
O        2.704003710   2.517469770   1.479035990
O        2.704003710   7.397460750   3.564049490
O        0.901334570   2.362521200   6.522121470
O        0.901334570   9.634041110   7.581568430
O        2.704003710   0.125940840   2.504602530
O        2.704003710   5.005931820   2.538482950
O        0.901334570   4.754050130   7.547688000
O        0.901334570   7.603667500   1.169059570
O        2.704003710   2.156314450   8.917111390
O        2.704003710   7.036305420   6.212145050
O        0.901334570   2.723676530   3.874025910
O        0.901334570   0.718863070   0.377209680
O        2.704003710   9.041118880   9.708961280
O        2.704003710   4.161127900   5.420295150
O        0.901334570   5.598854040   4.665875800
O        0.901334570   9.154191720   4.549188930
O        2.704003710   0.605790230   5.536982030
O        2.704003710   5.485781200   9.592274410
O        0.901334570   4.274200740   0.493896550
V        4.506672830   8.507924730  -0.166067730
V        6.309341980   1.252057220  10.252238680
V        6.309341980   6.132048190   4.877017750
V        4.506672830   3.627933760   5.209153200
V        4.506672830   5.500759920   8.978505000
V        6.309341980   4.259222020   1.107665960
V        6.309341980   9.139213000   3.935419520
V        4.506672830   0.620768950   6.150751440
O        4.506672830   7.242512170   8.607134970
O        6.309341980   2.517469770   1.479035990
O        6.309341980   7.397460750   3.564049490
O        4.506672830   2.362521200   6.522121470
O        4.506672830   9.634041110   7.581568430
O        6.309341980   0.125940840   2.504602530
O        6.309341980   5.005931820   2.538482950
O        4.506672830   4.754050130   7.547688000
O        4.506672830   7.603667500   1.169059570
O        6.309341980   2.156314450   8.917111390
O        6.309341980   7.036305420   6.212145050
O        4.506672830   2.723676530   3.874025910
O        4.506672830   0.718863070   0.377209680
O        6.309341980   9.041118880   9.708961280
O        6.309341980   4.161127900   5.420295150
O        4.506672830   5.598854040   4.665875800
O        4.506672830   9.154191720   4.549188930
O        6.309341980   0.605790230   5.536982030
O        6.309341980   5.485781200   9.592274410
O        4.506672830   4.274200740   0.493896550
End final coordinates

     Writing output data file liv2o5_gamma.save/

     General routines

     Parallel routines

   This run was terminated on:  19:18:53  19Oct2024

   JOB DONE.