     Program PWSCF v.6.4.1 starts on  8Feb2024 at 20:22:50

     R & G space division:  proc/nbgrp/npool/nimage =      32
     Reading input from int1.in
Warning: card &IONS ignored
Warning: card     ION_DYNAMICS = "BFGS" ignored
Warning: card     BFGS_NDIM = 2 ignored
Warning: card / ignored

     Current dimensions of program PWSCF are:
     Max number of different atomic species (ntypx) = 10
     Max number of k-points (npk) =  40000
     Max angular momentum in pseudopotentials (lmaxx) =  3

     IMPORTANT: XC functional enforced from input :
     Exchange-correlation      = VDW-DF ( 1  4  4  0 1 0)
     Any further DFT definition will be discarded
     Please, verify this is what you really want

               file V.pbesol-spnl-kjpaw_psl.1.0.0.UPF: wavefunction(s)  3P 3D renormalized
               file O.pbesol-n-kjpaw_psl.1.0.0.UPF: wavefunction(s)  2S 2P renormalized
               file C.pbesol-n-kjpaw_psl.1.0.0.UPF: wavefunction(s)  2S 2P renormalized

     Subspace diagonalization in iterative solution of the eigenvalue problem:
     one sub-group per band group will be used

     bravais-lattice index     =            0
     lattice parameter (alat)  =      30.2219  a.u.
     unit-cell volume          =   28307.6739 (a.u.)^3
     number of atoms/cell      =          177
     number of atomic types    =            4
     number of electrons       =      1043.00
     number of Kohn-Sham states=          626
     kinetic-energy cutoff     =      40.0000  Ry
     charge density cutoff     =     400.0000  Ry
     convergence threshold     =      1.0E-06
     mixing beta               =       0.4000
     number of iterations used =            8  local-TF  mixing
     Exchange-correlation      = VDW-DF ( 1  4  4  0 1 0)

     celldm(1)=  30.221920  celldm(2)=   0.000000  celldm(3)=   0.000000
     celldm(4)=   0.000000  celldm(5)=   0.000000  celldm(6)=   0.000000

     crystal axes: (cart. coord. in units of alat)
               a(1) = (   1.000000   0.000000   0.000000 )
               a(2) = (  -0.522247   0.468590   0.000000 )
               a(3) = (   0.000000   0.000000   2.188492 )

     reciprocal axes: (cart. coord. in units 2 pi/alat)
               b(1) = (  1.000000  1.114507 -0.000000 )
               b(2) = (  0.000000  2.134061  0.000000 )
               b(3) = (  0.000000 -0.000000  0.456936 )

     PseudoPot. # 1 for V  read from file:
     /home/mpicuntureo/pseudos/V.pbesol-spnl-kjpaw_psl.1.0.0.UPF
     MD5 check sum: d709b3179d4cab0f72010db8785d50db
     Pseudo is Projector augmented-wave + core cor, Zval = 13.0
     Generated using "atomic" code by A. Dal Corso v.6.3
     Shape of augmentation charge: PSQ
     Using radial grid of 1181 points,  6 beta functions with:
                l(1) =   0
                l(2) =   0
                l(3) =   1
                l(4) =   1
                l(5) =   2
                l(6) =   2
     Q(r) pseudized with 0 coefficients

     PseudoPot. # 2 for O  read from file:
     /home/mpicuntureo/pseudos/O.pbesol-n-kjpaw_psl.1.0.0.UPF
     MD5 check sum: cb766521a97cf798d01896eaf7ac9a0a
     Pseudo is Projector augmented-wave + core cor, Zval =  6.0
     Generated using "atomic" code by A. Dal Corso v.6.3
     Shape of augmentation charge: PSQ
     Using radial grid of 1095 points,  4 beta functions with:
                l(1) =   0
                l(2) =   0
                l(3) =   1
                l(4) =   1
     Q(r) pseudized with 0 coefficients

     PseudoPot. # 3 for C  read from file:
     /home/mpicuntureo/pseudos/C.pbesol-n-kjpaw_psl.1.0.0.UPF
     MD5 check sum: f9b2fe17d1f478429498b05d17159f9e
     Pseudo is Projector augmented-wave + core cor, Zval =  4.0
     Generated using "atomic" code by A. Dal Corso v.6.3
     Shape of augmentation charge: PSQ
     Using radial grid of 1073 points,  4 beta functions with:
                l(1) =   0
                l(2) =   0
                l(3) =   1
                l(4) =   1
     Q(r) pseudized with 0 coefficients

     PseudoPot. # 4 for Li read from file:
     /home/mpicuntureo/pseudos/Li.pbesol-sl-kjpaw_psl.1.0.0.UPF
     MD5 check sum: eef8ea5bb9be16d4f57185b44daa939b
     Pseudo is Projector augmented-wave, Zval =  3.0
     Generated using "atomic" code by A. Dal Corso v.6.3
     Shape of augmentation charge: PSQ
     Using radial grid of 1017 points,  4 beta functions with:
                l(1) =   0
                l(2) =   0
                l(3) =   1
                l(4) =   1
     Q(r) pseudized with 0 coefficients

     vdW kernel table read from file vdW_kernel_table
     MD5 check sum: 8c4337f4b28e1601c069d7ef7b6561bc

     atomic species   valence    mass     pseudopotential
        V             13.00    50.94150     V ( 1.00)
        O              6.00    15.99940     O ( 1.00)
        C              4.00    12.01100     C ( 1.00)
        Li             3.00     6.94100     Li( 1.00)

     No symmetry found

   Cartesian axes

     site n.     atom                  positions (alat units)
         1           V   tau(   1) = (   0.5047996   0.3804851   0.4854139  )
         2           V   tau(   2) = (   0.3462403   0.2259406   0.4857122  )
         3           V   tau(   3) = (   0.1863960   0.0673857   0.4831838  )
         4           V   tau(   4) = (   0.5214372   0.2048687   0.5654744  )
         5           V   tau(   5) = (   0.3625294   0.0485200   0.5630831  )
         6           V   tau(   6) = (  -0.3182074   0.3612934   0.5637421  )
         7           V   tau(   7) = (   0.6804778   0.0728868   0.5646864  )
         8           V   tau(   8) = (   0.0001192   0.3855191   0.5621648  )
         9           V   tau(   9) = (  -0.1590214   0.2299317   0.5655988  )
        10           V   tau(  10) = (   0.8574614   0.0538777   0.4869738  )
        11           V   tau(  11) = (   0.1768586   0.3672245   0.4833033  )
        12           V   tau(  12) = (   0.0161451   0.2080224   0.4851238  )
        13           V   tau(  13) = (   0.4999428   0.3859403   0.7661780  )
        14           V   tau(  14) = (   0.3387711   0.2294471   0.7760377  )
        15           V   tau(  15) = (   0.1821644   0.0755875   0.7749691  )
        16           V   tau(  16) = (   0.5168509   0.2109854   0.8510270  )
        17           V   tau(  17) = (   0.3577047   0.0534299   0.8571816  )
        18           V   tau(  18) = (  -0.3249496   0.3665784   0.8508889  )
        19           V   tau(  19) = (   0.6872119   0.0694938   0.8505209  )
        20           V   tau(  20) = (   0.0045721   0.3825829   0.8565948  )
        21           V   tau(  21) = (  -0.1547085   0.2250125   0.8510171  )
        22           V   tau(  22) = (   0.8625604   0.0501039   0.7663168  )
        23           V   tau(  23) = (   0.1801538   0.3604686   0.7747304  )
        24           V   tau(  24) = (   0.0231526   0.2066354   0.7756165  )
        25           O   tau(  25) = (   0.4366434   0.2902609   0.5247917  )
        26           O   tau(  26) = (   0.2768377   0.1342390   0.5243673  )
        27           O   tau(  27) = (  -0.4025320   0.4459917   0.5207326  )
        28           O   tau(  28) = (   0.5878577   0.2979754   0.5334307  )
        29           O   tau(  29) = (   0.4282189   0.1420816   0.5298572  )
        30           O   tau(  30) = (  -0.2521836   0.4539388   0.5284228  )
        31           O   tau(  31) = (   0.7743439   0.1363618   0.5350663  )
        32           O   tau(  32) = (   0.0928806   0.4489918   0.5278515  )
        33           O   tau(  33) = (  -0.0661615   0.2924732   0.5290032  )
        34           O   tau(  34) = (   0.2433063   0.4565690   0.5230058  )
        35           O   tau(  35) = (   0.0850136   0.3005759   0.5211853  )
        36           O   tau(  36) = (  -0.0743041   0.1443234   0.5257725  )
        37           O   tau(  37) = (   0.8480472   0.0617074   0.3864073  )
        38           O   tau(  38) = (   0.1731510   0.3720440   0.3823679  )
        39           O   tau(  39) = (   0.0061813   0.2080463   0.3844196  )
        40           O   tau(  40) = (   0.6723097   0.0775587   0.6650163  )
        41           O   tau(  41) = (  -0.0041980   0.3929919   0.6624979  )
        42           O   tau(  42) = (  -0.1633708   0.2412504   0.6656363  )
        43           O   tau(  43) = (   0.5260446   0.1952708   0.6656826  )
        44           O   tau(  44) = (   0.3666766   0.0402727   0.6632880  )
        45           O   tau(  45) = (  -0.3110024   0.3566833   0.6641380  )
        46           O   tau(  46) = (   0.6016576   0.1398609   0.5193154  )
        47           O   tau(  47) = (  -0.0794215   0.4519448   0.5172462  )
        48           O   tau(  48) = (  -0.2394595   0.2941901   0.5185412  )
        49           O   tau(  49) = (   0.4203673   0.4516472   0.5016010  )
        50           O   tau(  50) = (   0.2569819   0.2919395   0.5110451  )
        51           O   tau(  51) = (   0.1054837   0.1420673   0.5095859  )
        52           O   tau(  52) = (   0.5122221   0.3727027   0.3846499  )
        53           O   tau(  53) = (   0.3542076   0.2243394   0.3848993  )
        54           O   tau(  54) = (   0.1939312   0.0635534   0.3823875  )
        55           O   tau(  55) = (   0.4339224   0.2926810   0.7983470  )
        56           O   tau(  56) = (   0.2723935   0.1387115   0.8142148  )
        57           O   tau(  57) = (  -0.4062603   0.4488772   0.7967932  )
        58           O   tau(  58) = (   0.5833881   0.3020763   0.8111596  )
        59           O   tau(  59) = (   0.4224816   0.1460784   0.8179990  )
        60           O   tau(  60) = (  -0.2571136   0.4593409   0.8164585  )
[...]
       163           C   tau( 163) = (   0.4380652   0.3170313  -0.0009338  )
       164           C   tau( 164) = (   0.3796258   0.1744246  -0.0002370  )
       165           C   tau( 165) = (   0.3211813   0.0318148   0.0004846  )
       166           C   tau( 166) = (   0.2869018   0.2966537  -0.0017947  )
       167           C   tau( 167) = (   0.2284637   0.1540451  -0.0015232  )
       168           C   tau( 168) = (   0.1699878   0.0114333  -0.0008073  )
       169           C   tau( 169) = (   0.1356790   0.2762868  -0.0017625  )
       170           C   tau( 170) = (   0.0772145   0.1336652  -0.0019259  )
       171           C   tau( 171) = (  -0.5034888   0.4596394  -0.0015609  )
       172           C   tau( 172) = (  -0.0155635   0.2559036  -0.0006512  )
       173           C   tau( 173) = (  -0.0740022   0.1132867  -0.0012823  )
       174           C   tau( 174) = (  -0.1667455   0.2355207   0.0006894  )
       175           C   tau( 175) = (  -0.2595108   0.3577848   0.0011050  )
       176           C   tau( 176) = (   0.5892653   0.3374171   0.0001871  )
       177           Li  tau( 177) = (   0.1891258   0.2166823   0.6076839  )

     number of k points=     4  gaussian smearing, width (Ry)=  0.1000
                       cart. coord. in units 2pi/alat
        k(    1) = (   0.0000000   0.0000000   0.0000000), wk =   0.5000000
        k(    2) = (   0.0000000  -1.0670305   0.0000000), wk =   0.5000000
        k(    3) = (  -0.5000000  -0.5572533   0.0000000), wk =   0.5000000
        k(    4) = (  -0.5000000  -1.6242837   0.0000000), wk =   0.5000000

     Check: negative core charge=   -0.000004

     Initial potential from superposition of free atoms

     starting charge 1042.97102, renormalised to 1043.00000

     negative rho (up, down):  3.675E-03 0.000E+00

     %%%%%%%%%%%%%%%%%%%%%%%%%%%%%%%%%%%%%%%%%%%%%%%%%%%%%%%%%%%%%%%%%%%%%%%%
     %                                                                      %
     % You are using vdW-DF, which was implemented by the Thonhauser group. %
     % Please cite the following two papers that made this development      %
     % possible and the two reviews that describe the various versions:     %
     %                                                                      %
     %   T. Thonhauser et al., PRL 115, 136402 (2015).                      %
     %   T. Thonhauser et al., PRB 76, 125112 (2007).                       %
     %   K. Berland et al., Rep. Prog. Phys. 78, 066501 (2015).             %
     %   D.C. Langreth et al., J. Phys.: Condens. Matter 21, 084203 (2009). %
     %                                                                      %
     %                                                                      %
     % If you are calculating the stress with vdW-DF, please also cite:     %
     %                                                                      %
     %   R. Sabatini et al., J. Phys.: Condens. Matter 24, 424209 (2012).   %
     %                                                                      %
     %%%%%%%%%%%%%%%%%%%%%%%%%%%%%%%%%%%%%%%%%%%%%%%%%%%%%%%%%%%%%%%%%%%%%%%%

     Starting wfcs are  853 randomized atomic wfcs
     Checking if some PAW data can be deallocated...

     Self-consistent Calculation

     iteration #  1     ecut=    40.00 Ry     beta= 0.40
     Davidson diagonalization with overlap
     ethr =  1.00E-02,  avg # of iterations =  2.5

[...]

     total energy              =   -9461.68756632 Ry
     Harris-Foulkes estimate   =   -9479.59355910 Ry
     estimated scf accuracy    <      71.02275226 Ry

[...]

     iteration #  9     ecut=    40.00 Ry     beta= 0.40
     Davidson diagonalization with overlap
     c_bands:  2 eigenvalues not converged
     c_bands:  4 eigenvalues not converged
     ethr =  5.53E-05,  avg # of iterations = 16.8

[...]

     iteration # 19     ecut=    40.00 Ry     beta= 0.40
     Davidson diagonalization with overlap
     c_bands:  5 eigenvalues not converged
     ethr =  7.98E-07,  avg # of iterations = 10.5

[...]

     total energy              =   -9465.43734037 Ry
     Harris-Foulkes estimate   =   -9465.43734003 Ry
     estimated scf accuracy    <       0.00000109 Ry

     iteration # 32     ecut=    40.00 Ry     beta= 0.40
     Davidson diagonalization with overlap
     ethr =  1.05E-10,  avg # of iterations =  5.2

     negative rho (up, down):  5.495E-02 0.000E+00

     End of self-consistent calculation

          k = 0.0000 0.0000 0.0000 (121045 PWs)   bands (ev):

   -65.9270 -65.9215 -65.9141 -65.9139 -65.9138 -65.9133 -65.8905 -65.8873
   -65.8831 -65.8563 -65.8452 -65.8426 -65.8383 -65.8370 -65.8239 -65.8207
   -65.8176 -65.8172 -65.7182 -65.7176 -65.7158 -65.7151 -65.7069 -65.7050
   -46.1362 -39.9251 -39.9155 -39.9111 -39.9101 -39.8931 -39.8927 -39.8667
   -39.8666 -39.8629 -39.8474 -39.8444 -39.8420 -39.8397 -39.8374 -39.8290
   -39.8177 -39.8074 -39.8031 -39.7563 -39.7511 -39.7473 -39.7448 -39.7395
   -39.7255 -39.7226 -39.7225 -39.7186 -39.7174 -39.7156 -39.7078 -39.7010
   -39.6995 -39.6971 -39.6898 -39.6827 -39.6819 -39.6707 -39.6700 -39.6688
   -39.6653 -39.6596 -39.6592 -39.6567 -39.6565 -39.6513 -39.6444 -39.6394
   -39.6385 -39.6327 -39.6251 -39.6221 -39.6179 -39.6163 -39.6102 -39.6002
   -39.5998 -39.5961 -39.5946 -39.5892 -39.5820 -39.5582 -39.5522 -39.5442
   -39.5206 -39.5193 -39.5074 -39.5062 -39.5020 -39.5001 -39.4984 -39.4704
   -39.4685 -20.1332 -19.8718 -19.5716 -19.4454 -19.4370 -19.3195 -19.2820
   -19.2819 -19.1981 -19.1981 -19.0432 -19.0372 -19.0261 -19.0218 -18.9409
   -18.9406 -18.9227 -18.9142 -18.9118 -18.8932 -18.7932 -18.7800 -18.5778
   -18.4676 -18.4674 -18.4441 -18.4246 -18.3948 -18.3848 -18.3744 -18.3704
   -18.3449 -18.3354 -18.2970 -18.2863 -18.2746 -18.2657 -18.2477 -18.2476
   -18.2308 -18.2246 -18.2212 -18.2168 -18.2054 -18.1956 -18.1898 -18.1865
   -18.1749 -18.1568 -18.0707 -18.0477 -18.0288 -18.0079 -18.0072 -17.8559
   -17.7835 -17.7628 -17.7543 -17.7304 -17.7283 -17.7138 -17.6911 -17.6800
   -17.6762 -17.6537 -17.6407 -17.6193 -17.6104 -17.6062 -17.5804 -17.5465
   -17.5438 -17.3955 -17.3892 -17.3718 -17.3663 -17.3602 -17.3591 -16.7935
   -16.7934 -16.5389 -16.5352 -16.4775 -16.4736 -16.2205 -16.2189 -16.1221
   -16.1201 -15.8923 -15.8923 -15.8769 -15.8597 -15.7335 -15.7330 -15.6379
   -15.6376 -15.4952 -15.4951 -15.4843 -15.4815 -15.2431 -15.2428 -13.9272
   -13.9272 -13.6880 -13.6848 -12.8718 -12.8718 -12.6806 -12.6802 -12.6370
   -12.6345 -12.4347 -12.4332 -12.1584 -12.1558 -12.0530 -12.0530 -11.9198
   -11.9153 -11.8150 -11.8145 -11.7435 -11.7435 -11.5711 -11.5684 -11.5072
   -11.5070 -11.3310 -11.3291 -10.4821 -10.4821 -10.3387 -10.3387 -10.2437
   -10.2431 -10.1013 -10.0997  -9.4087  -9.4086  -9.1754  -9.1752  -8.9280
    -8.9280  -8.6925  -8.6919  -8.4350  -8.3563  -8.3562  -8.1275  -8.1261
    -7.9889  -7.9889  -7.8734  -7.8733  -7.7601  -7.7594  -7.6547  -7.6492
    -7.6018  -7.4151  -7.4072  -7.3453  -7.3448  -7.3176  -7.3143  -7.3126
    -7.3105  -7.1210  -7.1170  -7.0875  -7.0873  -7.0864  -7.0860  -6.8740
    -6.8373  -6.6930  -6.6689  -6.6503  -6.6448  -6.6313  -6.6206  -6.6151
    -6.6138  -6.6134  -6.5927  -6.5773  -6.5406  -6.5238  -6.5217  -6.5079
    -6.5078  -6.4530  -6.4493  -6.3897  -6.3860  -6.3167  -6.3026  -6.2730
    -6.2675  -6.2302  -6.2297  -6.2002  -6.1949  -6.1907  -6.1866  -6.1812
    -6.1321  -6.0927  -6.0658  -6.0037  -5.9966  -5.9922  -5.9884  -5.9884
    -5.9766  -5.9545  -5.9511  -5.9157  -5.8652  -5.8227  -5.7705  -5.7675
    -5.7649  -5.7597  -5.7465  -5.7314  -5.7115  -5.6995  -5.6801  -5.6359
    -5.6309  -5.6264  -5.6065  -5.5829  -5.5541  -5.5461  -5.4944  -5.4860
    -5.4722  -5.4684  -5.4465  -5.4239  -5.3897  -5.3730  -5.3725  -5.2935
    -5.2840  -5.2839  -5.2834  -5.2603  -5.2233  -5.2142  -5.2136  -5.2134
    -5.2033  -5.1341  -5.1034  -5.0758  -5.0659  -5.0638  -5.0606  -5.0429
    -5.0270  -4.9865  -4.9861  -4.9681  -4.9252  -4.9035  -4.8848  -4.8766
    -4.8436  -4.7960  -4.7844  -4.6950  -4.6885  -4.6793  -4.5994  -4.5629
    -4.5564  -4.4918  -4.4808  -4.4691  -4.4376  -4.4253  -4.4228  -4.3843
    -4.3726  -4.3584  -4.3463  -4.3270  -4.3224  -4.2616  -4.2424  -4.1955
    -4.1930  -4.1606  -4.1518  -4.1466  -4.1256  -4.1051  -4.1004  -4.0932
    -4.0772  -4.0753  -4.0619  -4.0429  -4.0091  -4.0056  -3.9786  -3.9677
    -3.9069  -3.8953  -3.8740  -3.8448  -3.8323  -3.8258  -3.7986  -3.7932
    -3.7808  -3.7784  -3.7513  -3.7376  -3.7312  -3.7186  -3.7037  -3.6983
    -3.6974  -3.6896  -3.6513  -3.6287  -3.5938  -3.5848  -3.5708  -3.5664
    -3.5465  -3.5437  -3.5372  -3.5264  -3.5110  -3.5036  -3.4915  -3.4813
    -3.4676  -3.4630  -3.4560  -3.4266  -3.4204  -3.4160  -3.4007  -3.3930
    -3.3471  -3.3446  -3.3059  -3.2838  -3.2733  -3.2437  -3.2403  -3.2246
    -3.2011  -3.1912  -3.1828  -3.1724  -3.1489  -3.1126  -3.1014  -3.0829
    -3.0716  -3.0584  -3.0550  -3.0458  -2.9906  -2.9775  -2.9711  -2.9511
    -2.9118  -2.9058  -2.8911  -2.8751  -2.8553  -2.8499  -2.8353  -2.8305
[...]
    -2.1612  -2.0906  -2.0723  -2.0043  -1.9931  -1.4974  -1.4966  -1.1004
    -1.0956   0.0014   0.0391   0.0725   0.2777   0.3948   0.4005   0.4334
     0.4341   0.5203   0.5248   0.6170   0.6260   0.6984   0.7052   0.7842
     0.7877   1.0079   1.0862   1.1296   1.1461   1.1557   1.1782   1.2241
     1.2467   1.3108   1.3151   1.3376   1.4651   1.5162   1.5255   1.5424
     1.5548   1.5648   1.6046   1.6150   1.6363   1.6506   1.6734   1.6854
     1.6944   1.7018   1.7132   1.7244   1.7534   1.7863   1.7882   1.8016
     1.8027   1.8598   1.8599   1.8661   1.8711   1.8791   1.9467   1.9658
     1.9673   1.9885   2.0213   2.0415   2.0703   2.1053   2.1267   2.1363
     2.1772   2.1800   2.1885   2.1940   2.1956   2.2104   2.2230   2.2394
     2.2464   2.2808   2.3091   2.3129   2.3399   2.3599   2.3700   2.4063
     2.4241   2.4555   2.4850   2.5646   2.5953   2.5997   2.6194   2.6295
     2.6511   2.7091   2.7272   2.7443   2.8057   2.8125   2.8149   2.8262
     2.8337   2.8421   2.8646   2.8947   2.8965   2.9280   2.9953   3.0336
     3.0800   3.1169

          k = 0.0000-1.0670 0.0000 (120926 PWs)   bands (ev):

[...]

          k =-0.5000-0.5573 0.0000 (120880 PWs)   bands (ev):

[...]

          k =-0.5000-1.6243 0.0000 (120890 PWs)   bands (ev):

   -65.9270 -65.9215 -65.9141 -65.9139 -65.9138 -65.9133 -65.8905 -65.8873
   -65.8830 -65.8562 -65.8452 -65.8426 -65.8383 -65.8370 -65.8239 -65.8207
   -65.8175 -65.8172 -65.7182 -65.7176 -65.7158 -65.7151 -65.7069 -65.7050
   -46.1362 -39.9250 -39.9154 -39.9112 -39.9100 -39.8930 -39.8927 -39.8667
   -39.8662 -39.8633 -39.8466 -39.8433 -39.8419 -39.8406 -39.8384 -39.8285
   -39.8182 -39.8072 -39.8031 -39.7539 -39.7499 -39.7468 -39.7390 -39.7376
   -39.7287 -39.7263 -39.7222 -39.7188 -39.7187 -39.7118 -39.7094 -39.7079
   -39.7030 -39.6974 -39.6903 -39.6822 -39.6808 -39.6737 -39.6691 -39.6665
   -39.6644 -39.6606 -39.6577 -39.6536 -39.6524 -39.6508 -39.6436 -39.6403
   -39.6378 -39.6265 -39.6251 -39.6212 -39.6189 -39.6163 -39.6123 -39.6050
   -39.6028 -39.5966 -39.5943 -39.5894 -39.5829 -39.5515 -39.5506 -39.5425
   -39.5232 -39.5197 -39.5067 -39.5050 -39.5039 -39.4999 -39.4993 -39.4700
   -39.4688 -19.9203 -19.9188 -19.6786 -19.6392 -19.5151 -19.5027 -19.4011
   -19.3719 -19.0427 -19.0425 -19.0092 -19.0035 -18.9637 -18.9565 -18.9314
   -18.9313 -18.8809 -18.8676 -18.8277 -18.8227 -18.7901 -18.7886 -18.6738
   -18.6725 -18.5120 -18.4946 -18.4030 -18.3890 -18.3791 -18.3721 -18.3680
   -18.3272 -18.3026 -18.2817 -18.2757 -18.2707 -18.2615 -18.2383 -18.2321
   -18.2314 -18.2212 -18.2122 -18.2101 -18.1984 -18.1891 -18.1716 -18.1631
   -18.0795 -18.0649 -18.0484 -18.0116 -17.9756 -17.8534 -17.7850 -17.7676
   -17.7575 -17.7367 -17.7335 -17.7277 -17.6906 -17.6790 -17.6692 -17.6647
   -17.6533 -17.6279 -17.5995 -17.5829 -17.5722 -17.5588 -17.5489 -17.4832
   -17.4824 -17.3955 -17.3891 -17.3717 -17.3662 -17.3602 -17.3591 -17.2180
   -17.2169 -17.1622 -17.1622 -16.9018 -16.9008 -16.3804 -16.3794 -16.1750
   -16.1749 -16.1272 -16.1247 -15.9174 -15.9173 -15.0385 -15.0383 -15.0324
   -15.0323 -14.7979 -14.7962 -14.7867 -14.7787 -14.7758 -14.6753 -14.6750
   -14.5516 -14.4347 -14.4343 -13.7966 -13.5581 -13.4037 -13.4031 -13.1592
   -13.1571 -12.1429 -12.1428 -11.9979 -11.9978 -11.9532 -11.9525 -11.9022
   -11.9005 -11.7684 -11.7665 -11.7104 -11.7088 -11.0390 -11.0389 -10.9267
   -10.9267 -10.8051 -10.8049 -10.6852 -10.6850  -9.9222  -9.9218  -9.8561
    -9.8560  -9.6910  -9.6900  -9.6528  -9.6527  -9.6199  -9.6196  -9.4174
    -9.4165  -8.9226  -8.9226  -8.6899  -8.6896  -8.4423  -8.4421  -8.3142
    -8.3142  -8.2125  -8.2121  -8.1809  -8.1740  -8.0829  -8.0748  -7.3809
    -7.3236  -7.1306  -7.1281  -7.1273  -7.1027  -7.1026  -6.9971  -6.9960
    -6.9392  -6.9390  -6.9379  -6.9377  -6.8992  -6.8763  -6.8742  -6.8292
    -6.8283  -6.8220  -6.8220  -6.7222  -6.7217  -6.7096  -6.6967  -6.6961
    -6.6943  -6.6515  -6.6318  -6.6258  -6.6210  -6.6043  -6.6005  -6.5980
    -6.5953  -6.5510  -6.5402  -6.4596  -6.4595  -6.3513  -6.3508  -6.3158
    -6.3027  -6.2425  -6.2414  -6.2108  -6.2085  -6.1898  -6.1817  -6.1809
    -6.1635  -6.1469  -6.0874  -6.0264  -6.0103  -5.9761  -5.9405  -5.9321
    -5.9069  -5.8714  -5.8405  -5.8319  -5.8147  -5.8070  -5.8069  -5.8031
    -5.7868  -5.7859  -5.7692  -5.6975  -5.6787  -5.6632  -5.6472  -5.6031
    -5.5997  -5.5865  -5.5836  -5.5819  -5.5709  -5.5282  -5.5078  -5.4649
    -5.4495  -5.4463  -5.4461  -5.4340  -5.4277  -5.4161  -5.4063  -5.3228
    -5.3155  -5.2841  -5.2476  -5.2180  -5.2159  -5.2131  -5.1808  -5.1755
    -5.1541  -5.0949  -5.0812  -5.0427  -5.0227  -5.0046  -4.9875  -4.9788
    -4.9698  -4.9442  -4.9296  -4.8965  -4.8748  -4.8680  -4.8532  -4.7691
    -4.7657  -4.7118  -4.7021  -4.6818  -4.6747  -4.6107  -4.5649  -4.5458
    -4.5234  -4.5139  -4.4903  -4.4351  -4.4300  -4.4097  -4.4034  -4.3651
    -4.3420  -4.3260  -4.3003  -4.2948  -4.2692  -4.2566  -4.2507  -4.2490
    -4.2331  -4.2317  -4.1963  -4.1722  -4.1712  -4.1634  -4.1578  -4.1107
    -4.0977  -4.0894  -4.0827  -4.0823  -4.0766  -4.0283  -4.0207  -4.0036
    -3.9984  -3.9563  -3.9474  -3.9364  -3.9122  -3.8979  -3.8736  -3.8663
    -3.8600  -3.8043  -3.7978  -3.7772  -3.7651  -3.7615  -3.7589  -3.7502
    -3.7487  -3.7311  -3.7277  -3.7244  -3.7120  -3.7040  -3.6976  -3.6889
    -3.6836  -3.6585  -3.6040  -3.5938  -3.5889  -3.5820  -3.5756  -3.5592
    -3.5343  -3.4859  -3.4132  -3.3848  -3.3826  -3.3629  -3.3498  -3.3137
    -3.3086  -3.2992  -3.2762  -3.2659  -3.2631  -3.2477  -3.2443  -3.1950
    -3.1745  -3.1725  -3.1652  -3.1455  -3.1365  -3.0956  -3.0647  -3.0622
    -3.0235  -2.9832  -2.9543  -2.9362  -2.8985  -2.8944  -2.8860  -2.8397
    -2.8277  -2.7932  -2.7801  -2.7743  -2.7502  -2.7440  -2.7389  -2.7247
[...]
    -2.0639  -2.0474  -2.0345  -2.0222  -2.0094  -1.9894  -1.9674  -1.9561
    -1.9502   0.0155   0.0482   0.0573   0.2642   0.4351   0.4415   0.5577
     0.5661   0.6094   0.6226   0.6709   0.6904   1.0217   1.0433   1.0446
     1.1230   1.1273   1.1326   1.1417   1.1760   1.2467   1.2619   1.2802
     1.2811   1.3516   1.3610   1.4028   1.4045   1.4159   1.4196   1.4293
     1.4304   1.4850   1.5257   1.5268   1.5376   1.5773   1.5908   1.6062
     1.6179   1.6367   1.6677   1.6857   1.6925   1.7040   1.7263   1.7365
     1.7435   1.7510   1.7635   1.7697   1.7734   1.7964   1.7992   1.8124
     1.8254   1.8261   1.8446   1.8736   1.9172   1.9324   1.9394   1.9600
     1.9747   2.0013   2.0321   2.0562   2.0611   2.0723   2.1145   2.1556
     2.1675   2.2212   2.2424   2.3167   2.3373   2.3911   2.4084   2.5692
     2.5739   2.6007   2.6281   2.6381   2.6477   2.6695   2.7066   2.7102
     2.7946   2.8104   2.8411   2.8611   2.8671   2.8709   2.8766   2.8790
     2.8961   2.9062   2.9082   3.0172   3.0200   3.0310   3.0317   3.0831
     3.1074   3.1135

     the Fermi energy is    -0.6177 ev

!    total energy              =   -9465.43734147 Ry
     Harris-Foulkes estimate   =   -9465.43734052 Ry
     estimated scf accuracy    <       0.00000050 Ry

     total all-electron energy =    -61743.947511 Ry

     The total energy is the sum of the following terms:

     one-electron contribution = -100254.38926193 Ry
     hartree contribution      =   50343.12360556 Ry
     xc contribution           =   -1396.42773004 Ry
     ewald contribution        =   44741.04959653 Ry
     one-center paw contrib.   =   -2897.44103194 Ry
     smearing contrib. (-TS)   =      -1.35251966 Ry

     convergence has been achieved in  32 iterations

     Writing output data file interface.save/

     General routines

     Parallel routines

   This run was terminated on:  18:52:30   9Feb2024

   JOB DONE.