     Program PWSCF v.6.4.1 starts on  6Jun2024 at 18:27:57

     R & G space division:  proc/nbgrp/npool/nimage =      32
     Reading input from v16o39.rlx.in
Warning: card &CELL ignored
Warning: card     CELL_DYNAMICS  = "BFGS" ignored
Warning: card / ignored

     Current dimensions of program PWSCF are:
     Max number of different atomic species (ntypx) = 10
     Max number of k-points (npk) =  40000
     Max angular momentum in pseudopotentials (lmaxx) =  3

     Atomic positions and unit cell read from directory:
     outdir/ovac1.save/

     Message from routine readpp:
     file outdir/ovac1.save/V.pbe-spnl-kjpaw_psl.1.0.0.UPF not found
     Message from routine readpp:
     file outdir/ovac1.save/O.pbe-n-kjpaw_psl.1.0.0.UPF not found
               file V.pbe-spnl-kjpaw_psl.1.0.0.UPF: wavefunction(s)  3P 3D renormalized
               file O.pbe-n-kjpaw_psl.1.0.0.UPF: wavefunction(s)  2S 2P renormalized

     Parameters for Dispersion (Grimme-D2) Correction:
       atom      VdW radius       C_6

        V          2.952        374.666
        O          2.536         24.284

     Subspace diagonalization in iterative solution of the eigenvalue problem:
     one sub-group per band group will be used

     bravais-lattice index     =            8
     lattice parameter (alat)  =      13.5232  a.u.
     unit-cell volume          =    4911.3436 (a.u.)^3
     number of atoms/cell      =           55
     number of atomic types    =            2
     number of electrons       =       442.00
     number of Kohn-Sham states=          265
     kinetic-energy cutoff     =      65.0000  Ry
     charge density cutoff     =     650.0000  Ry
     convergence threshold     =      1.0E-10
     mixing beta               =       0.7000
     number of iterations used =            8  plain     mixing
     Exchange-correlation      = SLA PW PBX PBC ( 1  4  3  4 0 0)
     nstep                     =          500

     celldm(1)=  13.523246  celldm(2)=   1.231081  celldm(3)=   1.613135
     celldm(4)=   0.000000  celldm(5)=   0.000000  celldm(6)=   0.000000

     crystal axes: (cart. coord. in units of alat)
               a(1) = (   1.000000   0.000000   0.000000 )
               a(2) = (   0.000000   1.231081   0.000000 )
               a(3) = (   0.000000   0.000000   1.613135 )

     reciprocal axes: (cart. coord. in units 2 pi/alat)
               b(1) = (  1.000000  0.000000  0.000000 )
               b(2) = (  0.000000  0.812294  0.000000 )
               b(3) = (  0.000000  0.000000  0.619911 )

     PseudoPot. # 1 for V  read from file:
     /home/mpicuntureo/pseudos/V.pbe-spnl-kjpaw_psl.1.0.0.UPF
     MD5 check sum: 069c5df6a0a9f40a694a86a6cab52b89
     Pseudo is Projector augmented-wave + core cor, Zval = 13.0
     Generated using "atomic" code by A. Dal Corso v.6.3
     Shape of augmentation charge: PSQ
     Using radial grid of 1181 points,  6 beta functions with:
                l(1) =   0
                l(2) =   0
                l(3) =   1
                l(4) =   1
                l(5) =   2
                l(6) =   2
     Q(r) pseudized with 0 coefficients

     PseudoPot. # 2 for O  read from file:
     /home/mpicuntureo/pseudos/O.pbe-n-kjpaw_psl.1.0.0.UPF
     MD5 check sum: e99d9cef9b487d1ca56f5b95ecd0fd7a
     Pseudo is Projector augmented-wave + core cor, Zval =  6.0
     Generated using "atomic" code by A. Dal Corso v.6.3
     Shape of augmentation charge: PSQ
     Using radial grid of 1095 points,  4 beta functions with:
                l(1) =   0
                l(2) =   0
                l(3) =   1
                l(4) =   1
     Q(r) pseudized with 0 coefficients

     atomic species   valence    mass     pseudopotential
        V             13.00    50.94150     V ( 1.00)
        O              6.00    15.99940     O ( 1.00)

     Simplified LDA+U calculation (l_max = 2) with parameters (eV):
     atomic species    L          U    alpha       J0     beta
        V              2     4.0000   0.0000   0.0000   0.0000

      4 Sym. Ops. (no inversion) found

   Cartesian axes

     site n.     atom                  positions (alat units)
         1           V   tau(   1) = (   0.0000000   0.2295279   1.0480382  )
         2           V   tau(   2) = (   0.2487621   0.3831034   1.3707132  )
         3           V   tau(   3) = (   0.2487621   0.3831034   0.2424221  )
         4           V   tau(   4) = (   0.0000000   0.2295279   0.5650971  )
         5           O   tau(   5) = (   0.2489359   0.3020307   1.0985489  )
         6           O   tau(   6) = (   0.0000000   0.3063429   1.3225967  )
         7           O   tau(   7) = (   0.0000000   0.3063429   0.2905386  )
         8           O   tau(   8) = (   0.2489359   0.3020307   0.5145864  )
         9           O   tau(   9) = (   0.0000000   0.0066712   0.5626689  )
        10           O   tau(  10) = (   0.2425525   0.6063339   0.2478185  )
        11           O   tau(  11) = (   0.2425525   0.6063339   1.3653168  )
        12           O   tau(  12) = (   0.2514802   0.3220576   0.0000000  )
        13           O   tau(  13) = (   0.0000000   0.2946976   0.8065677  )
        14           O   tau(  14) = (   0.0000000   0.0066712   1.0504664  )
        15           V   tau(  15) = (   0.0000000   0.8639761   1.0425347  )
        16           V   tau(  16) = (   0.2470005   0.9953311   1.3754658  )
        17           V   tau(  17) = (   0.2470005   0.9953311   0.2376695  )
        18           V   tau(  18) = (   0.0000000   0.8639761   0.5706006  )
        19           O   tau(  19) = (   0.2634745   0.9261863   1.0878105  )
        20           O   tau(  20) = (   0.0000000   0.9371397   1.3095212  )
        21           O   tau(  21) = (   0.0000000   0.9371397   0.3036141  )
        22           O   tau(  22) = (   0.2634745   0.9261863   0.5253248  )
        23           O   tau(  23) = (   0.0000000   0.6422598   0.5784198  )
        24           O   tau(  24) = (   0.2654256   1.2164123   0.2335525  )
        25           O   tau(  25) = (   0.2654256   1.2164123   1.3795829  )
        26           O   tau(  26) = (   0.2237423   0.9284556   0.0000000  )
        27           O   tau(  27) = (   0.0000000   0.9399092   0.8065677  )
        28           O   tau(  28) = (   0.0000000   0.6422598   1.0347155  )
        29           V   tau(  29) = (   0.5000000   0.2333270   1.0464379  )
        30           V   tau(  30) = (   0.7512379   0.3831034   1.3707132  )
        31           V   tau(  31) = (   0.7512379   0.3831034   0.2424221  )
        32           V   tau(  32) = (   0.5000000   0.2333270   0.5666974  )
        33           O   tau(  33) = (   0.7510641   0.3020307   1.0985489  )
        34           O   tau(  34) = (   0.5000000   0.3167070   1.3191055  )
        35           O   tau(  35) = (   0.5000000   0.3167070   0.2940298  )
        36           O   tau(  36) = (   0.7510641   0.3020307   0.5145864  )
        37           O   tau(  37) = (   0.5000000   0.0104231   0.5738330  )
        38           O   tau(  38) = (   0.7574475   0.6063339   0.2478185  )
        39           O   tau(  39) = (   0.7574475   0.6063339   1.3653168  )
        40           O   tau(  40) = (   0.7485198   0.3220576   0.0000000  )
        41           O   tau(  41) = (   0.5000000   0.3020228   0.8065677  )
        42           O   tau(  42) = (   0.5000000   0.0104231   1.0393023  )
        43           V   tau(  43) = (   0.5000000   0.8335714   1.1006414  )
        44           V   tau(  44) = (   0.7529995   0.9953311   1.3754658  )
        45           V   tau(  45) = (   0.7529995   0.9953311   0.2376695  )
        46           V   tau(  46) = (   0.5000000   0.8335714   0.5124939  )
        47           O   tau(  47) = (   0.7365255   0.9261863   1.0878105  )
        48           O   tau(  48) = (   0.5000000   0.8968463   1.3534352  )
        49           O   tau(  49) = (   0.5000000   0.8968463   0.2597001  )
        50           O   tau(  50) = (   0.7365255   0.9261863   0.5253248  )
        51           O   tau(  51) = (   0.5000000   0.6214464   0.5794007  )
        52           O   tau(  52) = (   0.7345744   1.2164123   0.2335525  )
        53           O   tau(  53) = (   0.7345744   1.2164123   1.3795829  )
        54           O   tau(  54) = (   0.7762577   0.9284556   0.0000000  )
        55           O   tau(  55) = (   0.5000000   0.6214464   1.0337346  )

     number of k points=     8  gaussian smearing, width (Ry)=  0.0500
                       cart. coord. in units 2pi/alat
        k(    1) = (   0.0000000   0.0000000   0.0000000), wk =   0.2500000
        k(    2) = (   0.0000000   0.0000000  -0.3099554), wk =   0.2500000
        k(    3) = (   0.0000000  -0.4061470   0.0000000), wk =   0.2500000
        k(    4) = (   0.0000000  -0.4061470  -0.3099554), wk =   0.2500000
        k(    5) = (  -0.5000000   0.0000000   0.0000000), wk =   0.2500000
        k(    6) = (  -0.5000000   0.0000000  -0.3099554), wk =   0.2500000
        k(    7) = (  -0.5000000  -0.4061470   0.0000000), wk =   0.2500000
        k(    8) = (  -0.5000000  -0.4061470  -0.3099554), wk =   0.2500000

     Check: negative core charge=   -0.000001

     The initial density is read from file :
     outdir/ovac1.save/charge-density

     negative rho (up, down):  1.520E-03 0.000E+00
     Number of +U iterations with fixed ns =  0
     Starting occupations:
 --- enter write_ns ---
 LDA+U parameters:
U( 1)     =  4.00000000
alpha( 1) =  0.00000000
atom    1   Tr[ns(na)] =   4.57513
    eigenvalues:
  0.321  0.468  0.468  0.491  0.540
    eigenvectors:
  0.000  0.127  0.000  0.561  0.312
  0.997  0.000  0.003  0.000  0.000
  0.000  0.771  0.000  0.224  0.006
  0.000  0.102  0.000  0.215  0.683
  0.003  0.000  0.997  0.000  0.000
    occupations:
  0.503 -0.000  0.005  0.025  0.000
 -0.000  0.322 -0.000  0.000  0.007
  0.005 -0.000  0.473 -0.010  0.000
  0.025  0.000 -0.010  0.522 -0.000
  0.000  0.007  0.000 -0.000  0.468
atom    2   Tr[ns(na)] =   4.57203
    eigenvalues:
  0.324  0.465  0.468  0.490  0.540
    eigenvectors:
  0.000  0.021  0.061  0.600  0.318
  0.994  0.003  0.003  0.000  0.000
  0.001  0.170  0.649  0.169  0.011
  0.000  0.010  0.092  0.230  0.668
  0.006  0.796  0.196  0.000  0.002
    occupations:
  0.504 -0.001  0.003  0.025  0.002
 -0.001  0.324 -0.004 -0.000  0.011
  0.003 -0.004  0.472 -0.011 -0.001
  0.025 -0.000 -0.011  0.521  0.003
  0.002  0.011 -0.001  0.003  0.465
atom    3   Tr[ns(na)] =   4.57203
    eigenvalues:
  0.324  0.465  0.468  0.490  0.540
    eigenvectors:
  0.000  0.021  0.061  0.600  0.318
  0.994  0.003  0.003  0.000  0.000
  0.001  0.170  0.649  0.169  0.011
  0.000  0.010  0.092  0.230  0.668
  0.006  0.796  0.196  0.000  0.002
    occupations:
  0.504  0.001 -0.003  0.025  0.002
  0.001  0.324 -0.004  0.000 -0.011
 -0.003 -0.004  0.472  0.011  0.001
  0.025  0.000  0.011  0.521  0.003
  0.002 -0.011  0.001  0.003  0.465
atom    4   Tr[ns(na)] =   4.57513
    eigenvalues:
  0.321  0.468  0.468  0.491  0.540
    eigenvectors:
  0.000  0.127  0.000  0.561  0.312
  0.997  0.000  0.003  0.000  0.000
  0.000  0.771  0.000  0.224  0.006
[...]
    eigenvectors:
  0.000  0.000  0.554  0.031  0.415
  0.986  0.014  0.000  0.000  0.000
  0.000  0.000  0.067  0.932  0.001
  0.000  0.000  0.379  0.037  0.584
  0.014  0.986  0.000  0.000  0.000
    occupations:
  0.496 -0.000  0.006  0.042  0.000
 -0.000  0.350 -0.000  0.000  0.012
  0.006 -0.000  0.482 -0.002  0.000
  0.042  0.000 -0.002  0.511 -0.000
  0.000  0.012  0.000 -0.000  0.448
atom   16   Tr[ns(na)] =   4.59382
    eigenvalues:
  0.355  0.451  0.467  0.482  0.542
    eigenvectors:
  0.019  0.380  0.002  0.224  0.376
  0.956  0.015  0.018  0.011  0.000
  0.004  0.345  0.210  0.441  0.001
  0.007  0.169  0.008  0.208  0.607
  0.014  0.091  0.763  0.116  0.016
    occupations:
  0.490  0.015  0.011  0.038 -0.013
  0.015  0.360  0.009 -0.009  0.012
  0.011  0.009  0.468 -0.006 -0.002
  0.038 -0.009 -0.006  0.512 -0.002
 -0.013  0.012 -0.002 -0.002  0.467
atom   17   Tr[ns(na)] =   4.59382
    eigenvalues:
  0.355  0.451  0.467  0.482  0.542
    eigenvectors:
  0.019  0.380  0.002  0.224  0.376
  0.956  0.015  0.018  0.011  0.000
  0.004  0.345  0.210  0.441  0.001
  0.007  0.169  0.008  0.208  0.607
  0.014  0.091  0.763  0.116  0.016
    occupations:
  0.490 -0.015 -0.011  0.038 -0.013
 -0.015  0.360  0.009  0.009 -0.012
 -0.011  0.009  0.468  0.006  0.002
  0.038  0.009  0.006  0.512 -0.002
 -0.013 -0.012  0.002 -0.002  0.467
atom   18   Tr[ns(na)] =   4.57200
    eigenvalues:
  0.348  0.449  0.459  0.484  0.546
    eigenvectors:
  0.000  0.000  0.554  0.031  0.415
  0.986  0.014  0.000  0.000  0.000
  0.000  0.000  0.067  0.932  0.001
  0.000  0.000  0.379  0.037  0.584
  0.014  0.986  0.000  0.000  0.000
    occupations:
  0.496 -0.000 -0.006  0.042  0.000
 -0.000  0.350 -0.000  0.000 -0.012
 -0.006 -0.000  0.482  0.002  0.000
  0.042  0.000  0.002  0.511 -0.000
  0.000 -0.012  0.000 -0.000  0.448
atom   29   Tr[ns(na)] =   4.57334
    eigenvalues:
  0.321  0.467  0.470  0.485  0.544
    eigenvectors:
  0.000  0.000  0.120  0.552  0.328
  1.000  0.000  0.000  0.000  0.000
  0.000  0.000  0.828  0.172  0.000
  0.000  0.000  0.052  0.276  0.672
  0.000  1.000  0.000  0.000  0.000
    occupations:
  0.502 -0.000  0.005  0.029  0.000
 -0.000  0.321 -0.000  0.000  0.001
  0.005 -0.000  0.473 -0.002  0.000
  0.029  0.000 -0.002  0.524 -0.000
  0.000  0.001  0.000 -0.000  0.467
atom   30   Tr[ns(na)] =   4.57242
    eigenvalues:
  0.323  0.465  0.468  0.490  0.540
    eigenvectors:
  0.000  0.022  0.063  0.598  0.318
  0.994  0.003  0.003  0.000  0.000
  0.001  0.168  0.650  0.171  0.011
  0.000  0.009  0.091  0.231  0.669
  0.005  0.798  0.194  0.000  0.003
    occupations:
  0.504  0.001  0.003  0.025 -0.002
  0.001  0.324  0.004  0.000  0.010
  0.003  0.004  0.472 -0.011  0.001
  0.025  0.000 -0.011  0.521 -0.003
 -0.002  0.010  0.001 -0.003  0.465
atom   31   Tr[ns(na)] =   4.57242
    eigenvalues:
  0.323  0.465  0.468  0.490  0.540
    eigenvectors:
  0.000  0.022  0.063  0.598  0.318
  0.994  0.003  0.003  0.000  0.000
  0.001  0.168  0.650  0.171  0.011
  0.000  0.009  0.091  0.231  0.669
  0.005  0.798  0.194  0.000  0.003
    occupations:
  0.504 -0.001 -0.003  0.025 -0.002
 -0.001  0.324  0.004 -0.000 -0.010
 -0.003  0.004  0.472  0.011 -0.001
  0.025 -0.000  0.011  0.521 -0.003
 -0.002 -0.010 -0.001 -0.003  0.465
atom   32   Tr[ns(na)] =   4.57334
    eigenvalues:
  0.321  0.467  0.470  0.485  0.544
    eigenvectors:
  0.000  0.000  0.120  0.552  0.328
  1.000  0.000  0.000  0.000  0.000
  0.000  0.000  0.828  0.172  0.000
  0.000  0.000  0.052  0.276  0.672
  0.000  1.000  0.000  0.000  0.000
    occupations:
  0.502 -0.000 -0.005  0.029  0.000
 -0.000  0.321 -0.000  0.000 -0.001
 -0.005 -0.000  0.473  0.002  0.000
  0.029  0.000  0.002  0.524 -0.000
  0.000 -0.001  0.000 -0.000  0.467
atom   43   Tr[ns(na)] =   4.53811
    eigenvalues:
  0.344  0.379  0.494  0.495  0.557
    eigenvectors:
  0.000  0.356  0.000  0.643  0.001
  0.956  0.000  0.044  0.000  0.000
  0.000  0.530  0.000  0.277  0.193
  0.000  0.114  0.000  0.080  0.806
  0.044  0.000  0.956  0.000  0.000
    occupations:
  0.454 -0.000 -0.051  0.022  0.000
 -0.000  0.351 -0.000  0.000 -0.031
 -0.051 -0.000  0.445  0.053  0.000
  0.022  0.000  0.053  0.531 -0.000
  0.000 -0.031  0.000 -0.000  0.488
atom   44   Tr[ns(na)] =   4.59382
    eigenvalues:
  0.355  0.451  0.467  0.482  0.542
    eigenvectors:
  0.019  0.380  0.002  0.224  0.376
  0.956  0.015  0.018  0.011  0.000
  0.004  0.345  0.210  0.441  0.001
  0.007  0.169  0.008  0.208  0.607
  0.014  0.091  0.763  0.116  0.016
    occupations:
  0.490 -0.015  0.011  0.038  0.013
 -0.015  0.360 -0.009  0.009  0.012
  0.011 -0.009  0.468 -0.006  0.002
  0.038  0.009 -0.006  0.512  0.002
  0.013  0.012  0.002  0.002  0.467
atom   45   Tr[ns(na)] =   4.59382
    eigenvalues:
  0.355  0.451  0.467  0.482  0.542
    eigenvectors:
  0.019  0.380  0.002  0.224  0.376
  0.956  0.015  0.018  0.011  0.000
  0.004  0.345  0.210  0.441  0.001
  0.007  0.169  0.008  0.208  0.607
  0.014  0.091  0.763  0.116  0.016
    occupations:
  0.490  0.015 -0.011  0.038  0.013
  0.015  0.360 -0.009 -0.009 -0.012
 -0.011 -0.009  0.468  0.006 -0.002
  0.038 -0.009  0.006  0.512  0.002
  0.013 -0.012 -0.002  0.002  0.467
atom   46   Tr[ns(na)] =   4.53811
    eigenvalues:
  0.344  0.379  0.494  0.495  0.557
    eigenvectors:
  0.000  0.356  0.000  0.643  0.001
  0.956  0.000  0.044  0.000  0.000
  0.000  0.530  0.000  0.277  0.193
  0.000  0.114  0.000  0.080  0.806
  0.044  0.000  0.956  0.000  0.000
    occupations:
  0.454 -0.000  0.051  0.022  0.000
 -0.000  0.351 -0.000  0.000  0.031
  0.051 -0.000  0.445 -0.053  0.000
  0.022  0.000 -0.053  0.531 -0.000
  0.000  0.031  0.000 -0.000  0.488
N of occupied +U levels =   73.183018
 --- exit write_ns ---

[...]

          k = 0.0000-0.4061-0.3100 ( 43472 PWs)   bands (ev):

[...]

          k =-0.5000-0.4061-0.3100 ( 43472 PWs)   bands (ev):

   -60.2058 -60.2057 -60.0487 -60.0474 -60.0466 -60.0453 -60.0052 -60.0029
   -59.9709 -59.9705 -59.9694 -59.9689 -59.9495 -59.9479 -59.9418 -59.9400
   -34.2448 -34.2442 -34.1213 -34.1184 -34.1173 -34.1171 -34.0756 -34.0738
   -34.0605 -34.0581 -34.0306 -34.0287 -33.9501 -33.9494 -33.9483 -33.9474
   -33.9319 -33.9318 -33.9287 -33.9203 -33.9141 -33.9121 -33.9114 -33.8899
   -33.8780 -33.8704 -33.8659 -33.8635 -33.8632 -33.8627 -33.8572 -33.8546
   -33.8351 -33.8220 -33.8211 -33.8205 -33.8200 -33.8154 -33.8123 -33.8052
   -33.7778 -33.7748 -33.7667 -33.7603 -33.7585 -33.7585 -33.7565 -33.7544
   -13.3635 -13.3056 -13.2113 -13.2050 -12.9040 -12.9017 -12.9012 -12.8975
   -12.6949 -12.6939 -12.4148 -12.4098 -12.3165 -12.2833 -12.2537 -12.0819
   -12.0337 -12.0316 -12.0267 -12.0153 -12.0049 -12.0014 -11.9984 -11.9551
   -11.9501 -11.9078 -11.9033 -11.8857 -11.8800 -11.8486 -11.8271 -11.7282
   -11.7269 -11.7159 -11.7074 -11.6677 -11.6634 -11.6568 -11.6417  -0.7725
    -0.7606  -0.6842  -0.6721  -0.5127  -0.5092  -0.4918  -0.4873  -0.1964
    -0.1312  -0.0659  -0.0642  -0.0216   0.0051   0.0426   0.0763   0.0908
     0.0913   0.2038   0.2308   0.2478   0.2527   0.2739   0.2814   0.3364
     0.4084   0.4226   0.4305   0.4946   0.5113   0.5565   0.6430   0.7259
     0.7335   0.7457   0.7862   0.8210   0.8339   0.8948   0.9596   0.9715
     0.9739   1.0024   1.0488   1.0707   1.1316   1.1834   1.3125   1.3437
     1.3819   1.4090   1.4556   1.5102   1.5673   1.6057   1.6980   1.7557
     1.8598   1.9457   1.9527   1.9589   2.0042   2.0125   2.0303   2.0370
     2.0432   2.0987   2.0996   2.1129   2.1611   2.1714   2.1906   2.2423
     2.2481   2.3052   2.3168   2.3285   2.3333   2.3765   2.4640   2.5514
     2.5792   2.5844   2.6421   2.6569   2.6668   2.6752   2.7343   2.7775
     2.8602   2.9453   2.9973   3.0081   3.0391   3.0783   3.1232   3.1531
     3.1922   3.2315   3.3078   3.3711   3.4007   3.4034   3.4205   3.4964
     3.6201   3.6332   3.6356   3.6510   3.7089   3.7170   3.7266   3.7285
     3.8823   3.8876   3.8904   3.8982   6.3698   6.4220   6.4846   6.5986
     6.7400   6.7589   6.7697   6.7802   6.7983   6.8148   7.0330   7.2988
     7.3538   7.3981   7.4136   7.4508   7.4716   7.4729   7.4765   7.5060
     7.5293   7.5650   7.5897   7.5904   7.5998   7.6113   7.6121   7.6622
     7.6647   7.7003   7.7978   7.8077   7.8086   7.8156   7.8602   7.8858
     7.9421   7.9461   7.9568   7.9846   7.9920   8.0021   8.0112   8.1061
     8.1085

     the Fermi energy is     5.9280 ev

!    total energy              =   -5047.70905671 Ry
     Harris-Foulkes estimate   =   -5047.70905671 Ry
     estimated scf accuracy    <          3.6E-13 Ry

     total all-electron energy =    -36246.277835 Ry

     The total energy is the sum of the following terms:

     one-electron contribution =   -2366.64386966 Ry
     hartree contribution      =    1351.91559659 Ry
     xc contribution           =    -612.16676288 Ry
     ewald contribution        =   -1933.97925939 Ry
     Dispersion Correction     =      -0.50816619 Ry
     Hubbard energy            =       5.72269212 Ry
     one-center paw contrib.   =   -1491.93672289 Ry
     smearing contrib. (-TS)   =      -0.11256441 Ry

     convergence has been achieved in  12 iterations

     negative rho (up, down):  1.937E-03 0.000E+00

     Forces acting on atoms (cartesian axes, Ry/au):

     atom    1 type  1   force =     0.00000000    0.00000877    0.00000067
     atom    2 type  1   force =    -0.00000103   -0.00000454   -0.00000004
     atom    3 type  1   force =    -0.00000103   -0.00000454    0.00000004
     atom    4 type  1   force =     0.00000000    0.00000877   -0.00000067
     atom    5 type  2   force =    -0.00000186   -0.00000022    0.00000682
     atom    6 type  2   force =     0.00000000   -0.00000161    0.00000568
     atom    7 type  2   force =     0.00000000   -0.00000161   -0.00000568
     atom    8 type  2   force =    -0.00000186   -0.00000022   -0.00000682
     atom    9 type  2   force =     0.00000000   -0.00000033   -0.00000320
     atom   10 type  2   force =    -0.00000925    0.00000802   -0.00000700
     atom   11 type  2   force =    -0.00000925    0.00000802    0.00000700
     atom   12 type  2   force =     0.00000463    0.00000996    0.00000000
     atom   13 type  2   force =     0.00000000    0.00001077    0.00000000
     atom   14 type  2   force =     0.00000000   -0.00000033    0.00000320
     atom   15 type  1   force =     0.00000000    0.00000189    0.00000300
     atom   16 type  1   force =     0.00000583    0.00000447    0.00000274
     atom   17 type  1   force =     0.00000583    0.00000447   -0.00000274
     atom   18 type  1   force =     0.00000000    0.00000189   -0.00000300
     atom   19 type  2   force =     0.00000366   -0.00001433    0.00000761
     atom   20 type  2   force =     0.00000000    0.00000528   -0.00000262
     atom   21 type  2   force =     0.00000000    0.00000528    0.00000262
     atom   22 type  2   force =     0.00000366   -0.00001433   -0.00000761
     atom   23 type  2   force =     0.00000000    0.00000339    0.00001054
     atom   24 type  2   force =    -0.00000367   -0.00000077   -0.00000314
     atom   25 type  2   force =    -0.00000367   -0.00000077    0.00000314
     atom   26 type  2   force =    -0.00000494    0.00000372    0.00000000
     atom   27 type  2   force =     0.00000000    0.00000160    0.00000000
     atom   28 type  2   force =     0.00000000    0.00000339   -0.00001054
     atom   29 type  1   force =     0.00000000    0.00000043    0.00000138
     atom   30 type  1   force =     0.00000103   -0.00000454   -0.00000004
     atom   31 type  1   force =     0.00000103   -0.00000454    0.00000004
     atom   32 type  1   force =     0.00000000    0.00000043   -0.00000138
     atom   33 type  2   force =     0.00000186   -0.00000022    0.00000682
     atom   34 type  2   force =     0.00000000   -0.00000731   -0.00001155
     atom   35 type  2   force =     0.00000000   -0.00000731    0.00001155
     atom   36 type  2   force =     0.00000186   -0.00000022   -0.00000682
     atom   37 type  2   force =     0.00000000   -0.00000326   -0.00000339
     atom   38 type  2   force =     0.00000925    0.00000802   -0.00000700
     atom   39 type  2   force =     0.00000925    0.00000802    0.00000700
     atom   40 type  2   force =    -0.00000463    0.00000996    0.00000000
     atom   41 type  2   force =     0.00000000    0.00000024    0.00000000
     atom   42 type  2   force =     0.00000000   -0.00000326    0.00000339
     atom   43 type  1   force =     0.00000000   -0.00000730    0.00000418
     atom   44 type  1   force =    -0.00000583    0.00000447    0.00000274
     atom   45 type  1   force =    -0.00000583    0.00000447   -0.00000274
     atom   46 type  1   force =     0.00000000   -0.00000730   -0.00000418
     atom   47 type  2   force =    -0.00000366   -0.00001433    0.00000761
     atom   48 type  2   force =     0.00000000    0.00000230    0.00001465
     atom   49 type  2   force =     0.00000000    0.00000230   -0.00001465
     atom   50 type  2   force =    -0.00000366   -0.00001433   -0.00000761
     atom   51 type  2   force =     0.00000000   -0.00000748   -0.00000778
     atom   52 type  2   force =     0.00000367   -0.00000077   -0.00000314
     atom   53 type  2   force =     0.00000367   -0.00000077    0.00000314
     atom   54 type  2   force =     0.00000494    0.00000372    0.00000000
     atom   55 type  2   force =     0.00000000   -0.00000748    0.00000778

     Total force =     0.000069     Total SCF correction =     0.000002
     Message from routine bfgs:
     history already reset at previous step: stopping

     bfgs converged in  40 scf cycles and  39 bfgs steps
     (criteria: energy <  1.0E-04 Ry, force <  1.0E-05 Ry/Bohr)

     End of BFGS Geometry Optimization

     Final energy   =   -5047.7090567106 Ry
Begin final coordinates

ATOMIC_POSITIONS (angstrom)
V        0.000000000   1.642724631   7.499456608
V        1.779439451   2.739778732   9.810299499
V        1.779439451   2.739778732   1.733608754
V        0.000000000   1.642724631   4.044451632
O        1.780859026   2.161722836   7.861830146
O        0.000000000   2.188379515   9.465532327
O        0.000000000   2.188379515   2.078375926
O        1.780859026   2.161722836   3.682078097
O        0.000000000   0.047693157   4.028301749
O        1.730683970   4.337149893   1.768302750
O        1.730683970   4.337149893   9.775605505
O        1.801016572   2.297462223   0.000000000
O        0.000000000   2.111735401   5.771954126
O        0.000000000   0.047693157   7.515606514
V        0.000000000   6.186521473   7.459599050
V        1.768581775   7.120803644   9.843583436
V        1.768581775   7.120803644   1.700324817
V        0.000000000   6.186521473   4.084309190
O        1.885916733   6.629640428   7.783784844
O        0.000000000   6.710585351   9.370321135
O        0.000000000   6.710585351   2.173587116
O        1.885916733   6.629640428   3.760123399
O        0.000000000   4.600012911   4.142957493
O        1.905610788   8.702306186   1.668770275
O        1.905610788   8.702306186   9.875137980
O        1.601232643   6.640905614   0.000000000
O        0.000000000   6.732833427   5.771954126
O        0.000000000   4.600012911   7.400950770
V        3.578096708   1.672956686   7.487247012
V        5.376753978   2.739778732   9.810299499
V        5.376753978   2.739778732   1.733608754
V        3.578096708   1.672956686   4.056661228
O        5.375334403   2.161722836   7.861830146
O        3.578096708   2.269455615   9.438467466
O        3.578096708   2.269455615   2.105440788
O        5.375334403   2.161722836   3.682078097
O        3.578096708   0.077789405   4.111775461
O        5.425509459   4.337149893   1.768302750
O        5.425509459   4.337149893   9.775605505
O        5.355176857   2.297462223   0.000000000
O        3.578096708   2.169827217   5.771954126
O        3.578096708   0.077789405   7.432132802
V        3.578096708   5.966469842   7.874913332
V        5.387611653   7.120803644   9.843583436
V        5.387611653   7.120803644   1.700324817
V        3.578096708   5.966469842   3.668994907
O        5.270276696   6.629640428   7.783784844
O        3.578096708   6.413137108   9.684343993
O        3.578096708   6.413137108   1.859564260
O        5.270276696   6.629640428   3.760123399
O        3.578096708   4.447218944   4.143791307
O        5.250582641   8.702306186   1.668770275
O        5.250582641   8.702306186   9.875137980
O        5.554960786   6.640905614   0.000000000
O        3.578096708   4.447218944   7.400116956
End final coordinates

     Writing output data file ovac1.save/

     General routines

     Parallel routines

     Hubbard U routines

   This run was terminated on:   4:41:17   9Jun2024

   JOB DONE.